480
# CELL(abcABC):   16.63000    16.63000    44.10000    90.00000    90.00000    90.00000 Step:            0  Bead:       0 positions{angstrom}  cell{angstrom}
O 6.518886407 -0.3382267879 8.3795920081
H 5.9136188075 0.2984771127 8.8690814553
H 5.9266021703 -0.7143384306 7.6485315777
O 0.0525589387 5.0066873902 7.5313114176
H -0.2364744776 5.9080936683 7.9627739379
H 1.0394305111 5.0086855633 7.478466194
O 11.5779459363 7.9282329539 0.2954412231
H 11.5358520061 6.9771305858 0.4323351336
H 10.9181106415 8.3054574563 1.0004534346
O 2.5158460358 10.2640581952 9.9598236344
H 2.8425621611 11.1092843749 9.6413049932
H 2.3175659816 10.4803630834 10.89611592
O 13.8924622697 0.9398525898 10.6403497581
H 13.2513900112 0.250779725 10.243862147
H 13.3316952984 1.4036584212 11.2701362543
O 9.6083139693 8.4600465234 2.3362242408
H 9.2197470827 7.6284530069 2.6537586124
H 8.8914476592 9.0651241482 2.3084985302
O 2.5440469476 0.373828243 4.3279636441
H 2.7810146184 -0.5891149943 4.2617921508
H 3.3721896996 0.8316866517 3.9490156116
O 6.8523844674 3.5306867404 0.3176137481
H 6.6427985421 2.6069502424 0.1174249518
H 6.6499567222 3.5904620687 1.3271145255
O 8.1213641139 8.7957401401 12.686302308
H 7.2774656398 8.3354475162 12.6325675375
H 8.3138195145 9.6940957116 11.3718001921
O 13.1776444045 2.6764936528 -0.7054429617
H 13.3486056853 3.8752472503 -0.8488155888
H 12.7816446948 2.3712203172 -1.5310345503
O 10.0707883908 15.3697107194 12.8328595234
H 9.7080114846 15.9726774563 12.0791614212
H 11.0034367621 15.1809606176 12.6360526986
O 5.326745937 10.5863932624 11.8435606152
H 4.5217478087 11.1766920261 11.9342256047
H 5.7610485514 10.7933809275 12.7269579346
O 12.0040209035 4.2832471116 11.4535548958
H 11.8765791563 3.8807665686 10.5663834846
H 12.9228392285 4.0198428059 11.6889345057
O 4.610044201 9.5360696385 15.4648033346
H 5.1535557618 10.1277738969 14.8582799976
H 5.3525692556 8.9952754026 15.7508691251
O -2.5268132335 11.7995235463 2.125227
H -3.2714391216 11.2351682244 2.006484397
H -2.3054912161 11.7442626287 3.0821815389
O 12.6853730728 8.5943289443 13.5566829263
H 12.8612350637 9.4025719873 13.0554822584
H 12.2097433059 8.9682280971 14.3363572794
O -2.9251577274 15.1030382152 4.1059182414
H -3.427540048 14.2898288441 4.1145205461
H -2.0782794564 14.7387468039 3.6983935813
O 2.2600465358 2.1547032289 12.4881762444
H 1.7871123976 2.4322968922 11.6784541511
H 2.5913511567 1.2777915054 12.21597278
O 1.4849781412 7.2343271137 5.12397211
H 1.1908730905 6.7368994793 5.8683127716
H 3.3897700248 6.8464973709 4.8656521389
O 0.0902337101 1.2564175088 3.7032270859
H -0.376038087 0.9638211423 4.5447188621
H 1.0528964835 1.1118013153 3.8361447588
O 9.9447796555 17.4828375533 14.7879126583
H 10.1240294389 16.7217516081 14.1843389551
H 10.6859505457 17.3161176279 15.3593637174
O 6.1327886612 11.3549834696 8.1523421477
H 6.3497375581 10.4126453344 8.0084959071
H 6.3608862636 11.8378730186 7.3397307468
O 5.5604284756 9.6358862186 4.7499898764
H 4.9338964193 8.9030451069 4.7054003465
H 5.9711329616 9.7263554126 3.8378693474
O -0.0119689301 6.0800333977 3.0423503704
H -0.8706372693 6.6160623928 3.0639328628
H 0.5502257613 6.4661306143 3.8034273196
O -5.0941778456 12.813576306 -1.0943718056
H -6.0745177837 12.7200024293 -0.9867355738
H -4.932829598 13.5124627621 -1.796460313
O 5.9767417109 5.8281926724 6.7086482956
H 6.2112788707 4.8194020509 6.6311428849
H 6.8411648522 6.3241349064 6.7467638716
O 11.6479296222 2.9475218146 9.0564620465
H 12.1802734272 3.0917310708 8.2498700364
H 10.6910036589 3.1562203096 8.6477160454
O 12.5235670869 4.5649011517 3.7006536972
H 11.9609739251 4.8474558514 2.9397931814
H 11.9542957087 4.0105546875 4.182679629
O 3.4949762748 12.8357901068 12.3753995852
H 4.1540426752 13.4872839813 12.8500588411
H 3.37731531 13.3200406996 11.522019843
O 13.1013481638 2.7025122378 6.4598450474
H 12.2901396117 2.6070560779 5.9540738759
H 13.6404061692 1.9248609292 6.2698053408
O 4.0101879677 15.1839769276 1.348087935
H 3.1752103629 14.5956556991 1.2809491058
H 4.6527710272 14.7847497661 0.7288738702
O 9.3752489805 2.9606051919 7.8059602098
H 10.1034830755 3.5816221634 6.6069822411
H 9.7570535116 2.0916242472 7.4253918367
O 11.6205658687 11.3350784689 12.9016541481
H 11.1576808057 10.6482636032 13.3915441824
H 11.6066257535 11.1198626273 11.9125663816
O 10.2562358977 6.6299728741 15.2261216589
H 10.3282177567 6.8568232058 16.1249227976
H 10.394953882 7.5021532242 14.7609277957
O 8.3601405123 16.5377286463 3.9585672602
H 8.9876600134 15.9198512831 3.420083412
H 7.3869042491 16.2659236524 3.9325365041
O 7.5029766239 2.8449217623 10.1504295607
H 6.6662199254 2.3014393062 10.1640373526
H 7.9730532052 2.673104802 9.2527560986
O 15.3496686618 4.2777055679 5.3403521414
H 14.7075946708 3.5644699425 5.584832541
H 15.8961102768 4.3634761974 6.1760039179
O 9.8273049611 2.40625079 12.4071883185
H 10.0213896984 2.0519565945 13.3454258595
H 10.5547796868 3.0542695578 12.1514925372
O 8.7557676813 3.8916570356 14.7902653802
H 9.458591745 4.5889914149 14.6596178775
H 7.8926076859 4.3339708637 15.0829628195
O -2.6931976606 15.6880780159 -1.1603623202
H -2.7027620095 15.1173926762 -0.3511164864
H -1.9113404516 16.2887216649 -1.2594152976
O 12.4916418259 10.4450256878 6.2745642314
H 11.447708546 10.2881235871 6.170527463
H 12.8000886373 9.6684057456 6.7914227238
O 14.5133808143 0.5464664864 2.1157822452
H 14.3296081533 1.4924183727 2.102561811
H 15.3960468107 0.5260079663 2.5608266277
O 2.2515908132 8.1140117258 1.9289176017
H 2.1826628359 8.8635732497 2.5409925368
H 2.8914464933 7.4329902922 2.2532100954
O 12.3658119525 9.4489062145 10.4146371574
H 11.8409300753 10.2179398723 10.0517755829
H 13.2886864208 9.8151259477 10.3459018006
O 7.3495729137 8.4613123153 6.5978407048
H 6.7606870531 8.9110198074 5.891800302
H 8.2833891792 8.7929323258 6.3373246483
O 4.1947485736 6.2637795999 4.5978567207
H 4.6479703315 6.0282126612 5.4314431186
H 0.9232057332 10.0054625228 4.7112138873
O 0.2370063007 9.621138579 7.8806329349
H 0.9489332707 8.118644143 5.1797389209
H 1.0743937784 9.9941116716 8.2348800336
O 2.3792818028 8.5987121192 14.264374362
H 3.2253610162 8.9263188497 14.7123884871
H 1.8268250304 8.255348608 14.9760875445
O -0.3915641463 0.9691129144 8.3283242618
H -0.189652349 0.6211582618 9.2228676407
H 0.3718311282 0.7243229462 7.734405926
O 10.0846396042 15.2323188532 2.5679313609
H 10.5612224193 14.5735281542 3.0619172268
H 9.6776234834 14.760238807 1.8046551512
O -0.1964173504 13.9690574956 3.6663460804
H -0.543085044 13.2963430858 4.3207244999
H 0.6715618618 14.1760573318 4.0779163003
O 0.1610212161 10.6136956313 1.4230675828
H 0.3567569863 10.8778010968 0.4233264208
H -0.7574245681 11.0062382263 1.5538907723
O 9.0224618817 2.6346394399 3.7666114028
H 8.1213053752 2.9965559039 3.5496461014
H 8.820393977 1.6766233715 3.9689931095
O 12.5748676422 13.598145019 9.9536444321
H 12.2291799848 14.2955815296 9.3610172887
H 11.8931402863 12.878916991 9.8488207772
O 0.5474724522 11.1310610754 -1.1316089474
H 0.3851431101 10.2774469077 -1.5901526406
H -0.098961959 11.7180583025 -1.597777555
O 4.8718366329 3.9890653302 10.4948900562
H 4.0384476182 4.2971358966 10.1330164555
H 4.8120369625 2.983040718 10.4793317171
O 0.9482712701 15.5544507163 13.2451986378
H 1.1466206464 14.5920255435 13.4341217806
H 1.7331458475 15.7263777455 12.6787070275
O 14.8044319832 7.8361883995 6.246994628
H 15.4430287508 7.49039914 6.9076014632
H 15.3567569905 8.402167237 5.7626011574
O 1.5597000797 2.7455952002 10.0596153432
H 0.9367336194 2.4046944799 9.3839862254
H 1.6131845494 3.6731798749 9.906546073
O 4.4635039192 2.006621983 3.2750433476
H 4.0144060392 2.1148736479 2.4048982131
H 0.4217076677 2.3198954197 0.2923677619
O 10.050035119 7.1941271087 11.5238312166
H 9.5780370953 7.7613727965 12.2465264137
H 9.5925836476 7.6765403982 10.802968031
O 11.3843961972 5.3062466703 1.0059108391
H 12.0683831398 4.91188741 0.3760788337
H 10.6854626443 4.6690950857 0.9319768454
O 14.1671332874 15.7163461332 8.1245063682
H 14.8371970485 15.0141406776 7.8387305668
H 14.8117118741 16.4559337251 8.2761135217
O 7.6284884618 5.732774084 11.6007291319
H 6.8115245784 6.2435470385 11.8029801318
H 8.3397063344 6.4045746047 11.8306095322
O 7.1089756165 18.2704633231 15.7563053626
H 6.8024163803 17.5422832042 16.2634010646
H 7.9964735301 18.1186688408 15.4262474832
O -0.2419715704 5.5910032764 -0.4066425217
H -1.1994087189 5.4259513175 -0.4293209402
H 0.1270633854 4.7412759153 -0.0744255993
O 11.5931989402 13.4685913256 4.0772326033
H 11.3740465494 13.049278714 4.9693063122
H 11.3494503927 12.8229882518 3.3690252198
O 3.0883496284 6.0105704223 12.7476000791
H 4.0054894033 6.4411211703 12.4529192837
H 2.7613726187 6.7274526077 13.338786273
O 7.5542464869 6.3435038506 3.4486065927
H 7.1671406586 6.6043765726 2.56458114
H 7.0698715375 6.9180193749 4.1175442647
O 0.5508872328 18.1683035463 14.7206738147
H 0.6367478224 17.1590853496 14.8252043054
H 1.0711721476 18.2237142209 13.8890072717
O 0.062285745 8.0697047764 11.6845238137
H 0.5216464878 8.8711426005 11.7124749538
H -0.0074529318 7.7991348821 10.7336759798
O 3.6637388243 13.6674963381 9.6218450306
H 4.5954193305 13.936333177 9.8550174423
H 3.2622102711 14.1786317789 8.8211417044
O 6.5139692923 10.9802053535 14.1599380649
H 7.2034676156 10.3886683151 13.8015136412
H 6.8787729472 11.8860942917 14.0717194616
O -2.1775266419 18.0992221076 14.016231527
H -2.1328492685 18.724879434 13.3330574006
H -1.2275879344 18.0935837244 14.3363260579
O 2.3824753872 14.4771004248 7.2673763471
H 2.3281198919 15.4265792773 7.4633105587
H 3.0068161208 12.5120865874 7.4398770044
O 14.1781100102 8.0007085353 -0.1706760543
H 13.2457405153 8.1442854247 0.2417757748
H 14.108519503 7.0716453395 -0.5163610658
O -1.635988912 12.6786292385 -2.0553920129
H -1.7771395239 13.3869339905 -1.362965223
H -2.3623724743 11.9787701546 -1.9905947929
O 7.0877984738 12.9981263283 5.8005373423
H 7.4083401595 12.5464868102 4.9725628687
H 6.2627249497 13.4982850463 5.6965132741
O 1.8055843864 5.5096777355 10.3418525366
H 1.0842846296 6.1445353369 10.0524100663
H 2.0565244522 5.6907044959 11.3447110816
O 8.7574885655 14.7960651624 6.3534936579
H 7.9632443764 14.2416843017 6.2987232877
H 8.7523962933 15.4610800438 5.5749152309
O -2.5590189584 12.018045687 14.5860527203
H -3.452955371 11.6913279742 14.3824613145
H -1.9707247179 11.5037690503 14.0564437031
O 2.7754222736 4.6252908547 7.0410446091
H 3.2718222459 3.8840003705 7.5152667646
H 2.7817888046 4.3025038702 6.1307836088
O -1.8573617304 -1.9168015604 15.0014478331
H -2.0847486478 -2.9190631935 15.0754410946
H -2.6002402754 -1.6289492676 15.5461997853
O 16.2888931183 7.0644808093 8.9870133588
H 15.2911210246 7.0872280208 9.1391904362
H 16.7321430609 8.6658932825 8.2285299071
O 4.7326910735 11.6248008739 0.5761141687
H 4.484424411 10.7982234282 0.1795736399
H 4.1447302146 11.8375115906 1.3188694154
O -1.0717685303 13.9973430757 11.3079120985
H -0.8412631716 13.0970057356 11.5367166816
H -1.7619373211 13.9033283945 10.6468655171
O -1.9923701825 3.7348078526 12.0419168709
H -1.8490848697 4.6240097167 12.4204542619
H -1.5161408578 3.7849135258 11.164096021
O 3.0347545607 -0.446705999 11.682774883
H 2.7715640426 -0.8421580103 10.8158418541
H 3.7660430665 -1.0421213772 12.1014858201
O -3.5856312099 10.646880334 -2.1831761377
H -3.0090518945 9.8605785656 -1.8550169462
H -4.2466000024 10.8918375222 -1.5166874979
O 14.6831519755 0.7647727228 5.6245716326
H 14.3688212428 0.0944681861 4.9294105841
H 14.7163451451 0.2583522509 6.412563593
O -0.8539925294 11.4098993636 12.3139192479
H 0.0449472537 11.044577115 12.3337819145
H -1.2228491525 11.0536376872 11.4498681182
O 4.8218770127 4.6711091342 15.1068038402
H 4.1836549026 5.018091159 15.7618405562
H 5.4413720705 5.3898820698 15.0558313748
O 9.223946633 13.6275445172 10.1362941791
H 9.2913320588 13.8773315058 11.0836150469
H 9.7018698539 12.7399217178 10.2013353498
O -0.6592309745 13.7991789114 7.164376766
H -0.7769972455 13.3829921495 6.3397181169
H 0.3522219376 14.0605231302 7.1184568846
O 6.5031312139 7.8340986787 0.9956807853
H 6.515189575 8.5982834856 1.6545429233
H 7.43425873 7.6619912 0.6419628638
O 4.253392521 9.1008367305 -0.3203178437
H 3.6051165731 8.8406175424 0.3867168831
H 5.0953473273 8.6240205483 -0.0545470575
O 18.019187759 14.123751869 0.9300416444
H 17.5047899406 13.9524566774 1.7411358942
H 17.915462676 15.0838872921 0.8664064975
O 9.9822967321 9.6167765713 14.471119664
H 9.56170457 10.2889316407 15.0218105721
H 9.3082689045 9.2631650143 13.7861288722
O 1.7709423296 10.8897615601 12.5416966981
H 1.8453324741 10.3787959851 13.363914782
H 2.3264154121 11.8038310488 12.7218698957
O 12.8644334108 16.9587430918 15.9104197577
H 13.3845616891 17.2674465541 15.1515224894
H 13.398384327 17.1286232635 16.6613089873
O 18.5352471938 10.4854685851 3.6047704912
H 19.1212225797 11.2425645342 3.7234358344
H 17.964280861 10.746212717 2.7895370173
O 8.3815896521 6.1903769001 -0.0843175089
H 7.6563692214 5.5057485947 -0.0432030857
H 9.1596680067 5.8720778675 -0.6859025641
O 4.2905979122 2.1919319038 7.5750198675
H 4.6495329918 1.8600822304 8.4792889943
H 5.0217901077 2.3258962893 6.9709201621
O -1.5839617964 3.6609871028 9.3925954094
H -0.8564034608 3.9857786106 8.8380822544
H -1.942777282 2.7580340397 9.1718957044
O 13.0324281241 14.1373675986 0.9661542846
H 13.5117896487 13.3575344924 1.3568685724
H 12.4560689464 13.7747340994 0.2336608423
O 6.8022338141 8.3479133437 9.2780364814
H 7.4706671803 8.8509200935 9.7390307942
H 7.0518144236 8.3670685003 8.3096675902
O 8.8930600621 0.2039734718 10.8697782411
H 9.2265448931 1.1104704346 10.9119436103
H 8.0401920343 0.235335159 11.3772491298
O 6.789885464 3.2979662459 6.4268148644
H 7.5746028758 2.9319158495 6.9766347468
H 7.125412919 3.3083709282 5.4741011517
O 1.0469564693 15.4162666718 9.6717670792
H 1.3556207725 14.7005375635 9.0848397035
H 0.4894259459 14.9659395132 10.350277567
O 6.0699869684 2.5089318064 13.2956784393
H 6.3324260549 2.1556853818 14.180107125
H 6.119669829 1.6810965065 12.7780166559
O 3.7787904163 3.6605833406 0.6417374343
H 4.2766445676 3.390678622 -0.1000308969
H 4.0249800582 4.5661939316 0.8879217845
O 2.4914880089 14.4704872973 4.6810994707
H 2.5130249921 14.2634684107 5.7225487928
H 2.9001239412 13.7360083821 4.1983157571
O 8.3947095426 5.7964595027 7.9735463983
H 9.0769131581 6.4728596317 8.0077037288
H 8.8702128362 5.0290117891 7.6089676437
O 5.6172494076 16.1359090456 3.7567581232
H 5.0411743981 15.6960548331 3.1501940396
H 5.4089710792 17.1354051986 3.6030982912
O -0.7701756221 1.2047502336 -0.3406795243
H -1.0851281381 0.6070419306 0.3768598992
H -1.6240379739 1.7549246647 -0.3832370138
O 12.4802491698 9.5398405552 3.5256696113
H 11.4811461954 9.597380639 3.2920675076
H 12.6289040437 9.7529989558 4.4868496301
O 10.6288830172 12.7319332587 6.7990449923
H 10.188746224 11.8966021636 6.6201158903
H 9.9394164445 13.3614128321 6.6450549538
O -4.2257102029 -2.180602749 -3.1119445818
H -3.4471307175 -1.7776591759 -2.6483530672
H -3.8791769203 -2.959584409 -3.5330606293
O 11.5122861574 1.1712384994 0.776962849
H 12.1794950075 1.7737734277 0.3280639397
H 10.7133788588 1.7484745237 1.0052737098
O 7.0021326214 0.5563626294 1.0169965725
H 7.2939907856 0.9174308223 1.8781171189
H 6.4684267142 -0.2040417356 1.1368626187
O 6.2997969882 16.7637381154 12.0687017045
H 5.7697905589 16.0585105287 12.5451278831
H 5.8374045892 17.0316002099 11.2668574723
O 10.3627343984 12.0101752344 2.1197955251
H 10.0133266253 12.3559824859 1.2219945313
H 9.5404062457 11.7367096824 2.6098802966
O 4.0653589251 12.0108123638 4.5581070455
H 3.7713316635 11.8533006509 5.5314793073
H 4.6952528443 11.2389423162 4.5508509676
O 6.6188056475 6.8321233304 14.8466275155
H 7.587930733 6.940338482 14.8987128406
H 6.3815744465 7.1341464596 13.9497070726
O 2.5096663044 3.9757242436 4.1605806596
H 3.2552822831 3.3238514783 3.8534239822
H 3.1019436617 4.7991462057 4.1029548491
O 2.0746725845 0.6909038179 7.0044054375
H 2.2313788897 0.4719842651 6.0318528712
H 2.7986044688 1.3591974813 7.2883862698
O 9.3272203279 16.2379545202 -0.5208511344
H 10.1392416962 16.6530067261 -0.1598305674
H 8.5538791677 16.7520316571 -0.2422848433
O 14.7460388658 6.3917605786 12.9111057822
H 15.4248710933 7.0092251835 12.5874033211
H 14.2986274736 6.9459392936 13.6238037635
O 6.5394788089 3.4713384581 3.1616560179
H 6.2177464745 4.3887497008 3.206341329
H 5.5908820948 2.852586365 3.1898373502
O 4.4632679062 6.1465319225 2.0192698475
H 4.4860675062 6.1802431566 3.0138726989
H 5.2609533347 6.7041497602 1.690922798
O 11.4436153603 0.0968685339 8.9700987385
H 11.6136595769 1.0766962285 9.0904891994
H 12.3145717234 -0.2603816455 8.6554579079
O 12.8588474162 14.6411252508 12.469075593
H 12.7031587188 14.0254519107 11.733050422
H 13.1892635485 14.1140584009 13.1870394167
O 6.1661823889 -2.2457407591 10.1473603329
H 6.5035079881 -1.9159363556 10.9701615701
H 6.4172187649 -1.5216554135 9.4655752966
O 8.8317607035 13.4691670704 0.1832048539
H 7.8871518689 13.3631792256 0.3258239325
H 8.8590831811 14.4113363981 -0.1414707641
O -1.7911473738 11.1515645755 9.7097635904
H -2.4667225155 11.7788411843 9.3776667912
H -1.269906765 10.7381713402 8.9989680011
O 8.3690206351 11.1652760862 3.9991906069
H 7.7440438305 10.6398343395 3.4646205534
H 8.7940203141 10.5574726696 4.6680197976
O 5.0542556586 -1.6888791157 6.5182609195
H 5.0512689825 -1.1119960525 5.7020468802
H 4.0655949381 -1.8074169271 6.6558110097
O 11.8701951625 6.0235908275 6.6656113716
H 11.1524313678 5.4516867927 6.2530759325
H 11.4770323718 6.8672596387 7.0041964125
O -1.845612938 11.6314219391 5.0527750208
H -1.2642736736 10.8167107631 5.0836440441
H -2.657687224 11.2415014172 5.5279412285
O 10.7235364153 8.0842751417 8.070593265
H 10.2706443347 8.7545473986 7.4645170827
H 11.143780908 8.4409464012 8.8716013972
O -2.6690946971 7.3926489969 3.1106200512
H -2.9490786539 7.1199523394 2.1822892367
H -3.1948005032 8.2345567063 3.2734007815
O 5.9324162403 13.8921235963 -0.3540031481
H 5.6427086523 14.0875053469 -1.2904002107
H 5.6365135747 12.9925440379 -0.1564650003
O 14.3404271813 3.4594393794 1.9415644078
H 13.6279578046 3.7560029873 2.5481951678
H 14.0716765982 3.6198165868 0.9993157036
O 18.1495452726 7.7128414255 -1.2494667661
H 19.1164774477 7.9075659381 -1.3676278034
H 18.0468891275 6.740945039 -1.5158386976
O 7.4487216722 13.2370720634 13.0275586355
H 6.7175352977 13.9605774308 13.1888486736
H 8.3188604566 13.6244059672 13.2891499801
O 4.0941091229 6.6522761059 9.0731237201
H 3.2673332357 6.3041875715 9.3270890919
H 4.1027167193 6.8036514799 8.1336262082
O 13.1615060872 6.2311664085 9.2711471233
H 12.6469024189 6.1733749656 8.4841568954
H 13.5677834767 5.3432059941 9.3301392694
O 9.6680935311 3.2953711609 1.0339418851
H 8.7275545984 3.2539641027 0.654096368
H 9.4878806451 3.2204523684 1.964519586
Na 7.8395841296 3.4597722318 12.5439980898
O 5.0630553465 14.8143873941 13.193923483
H 4.8199068859 14.8473625426 14.1714550776
Na 4.8829488251 8.604436229 10.3465251714
O 0.9154972088 3.0096916698 0.8596462587
H 1.8525478053 3.1059109032 0.5565626583
Na 12.516018374 7.0563949816 11.304204683
O 13.4701592777 5.0709437911 -0.6262685261
H 13.1872346831 5.31074891 -1.5081598071
Na -1.6734800589 15.967292549 12.7413473212
O 3.1832649692 11.6170235565 7.1172403062
H 4.1251437786 11.4895246582 7.3364821279
Na 13.5958753779 5.9336068891 5.3340734538
O 5.5048569311 7.254204068 12.2179360275
H 5.3173339912 8.1930824426 12.4330613797
Na 6.5561457742 5.7211231894 9.6447409408
O 10.8705545441 11.5579340418 9.9081992226
H 10.5304893945 11.4170898235 8.9926612672
Na 12.5151796281 16.131177143 2.1086589908
O 8.486305884 10.2418200522 10.510775956
H 9.3657756501 10.7006928935 10.6491224579
Na 6.9587490863 12.1237165547 10.238182488
O 0.266062892 9.5494477675 5.2958531008
H 0.4888734849 9.7675079365 6.2762803531
Na 0.0536749734 7.6246831485 1.0105379647
O 5.0738463281 1.4086829588 9.8131103117
H 4.2286804745 0.9452914732 10.0077644436
Na 4.0747015487 3.8379598367 12.8776623118
O 9.8304562114 9.9564268459 5.9662862276
H 10.1083393347 9.2361441677 5.3345587093
Na 9.0407692964 -1.1342188494 8.774752972
O 10.5222210006 4.0886961692 5.7779541757
H 9.890725262 3.8579928983 5.0691091337
Na 0.1764282105 3.6432369117 3.1471226951
O 6.8330356319 9.838475892 2.5745487219
H 6.3802477993 10.4781410683 2.0312244898
