Generated by runner2lammps.sh, original comment line:  Na12a

  480 atoms
  3 atom types

  0.0000000000000000E+00   1.6629999688598279E+01 xlo xhi
  0.0000000000000000E+00   1.6629999688598279E+01 ylo yhi
  0.0000000000000000E+00   4.4099999229264021E+01 zlo zhi

Atoms

    1   2   6.5188864069668817E+00  -3.3822678794887889E-01   8.3795920081483750E+00
    2   1   5.9136188075262934E+00   2.9847711274663097E-01   8.8690814552935162E+00
    3   1   5.9266021703396374E+00  -7.1433843061685010E-01   7.6485315777393232E+00
    4   2   5.2558938713958017E-02   5.0066873901888016E+00   7.5313114175504046E+00
    5   1  -2.3647447756774781E-01   5.9080936682911549E+00   7.9627739378849816E+00
    6   1   1.0394305110707214E+00   5.0086855633285285E+00   7.4784661939665869E+00
    7   2   1.1577945936315000E+01   7.9282329539471208E+00   2.9544122310081256E-01
    8   1   1.1535852006078592E+01   6.9771305858294115E+00   4.3233513355158104E-01
    9   1   1.0918110641476554E+01   8.3054574562848078E+00   1.0004534345930498E+00
   10   2   2.5158460358251151E+00   1.0264058195173845E+01   9.9598236343974929E+00
   11   1   2.8425621611322223E+00   1.1109284374923694E+01   9.6413049932290242E+00
   12   1   2.3175659816434986E+00   1.0480363083435270E+01   1.0896115919977724E+01
   13   2   1.3892462269705257E+01   9.3985258983978515E-01   1.0640349758092745E+01
   14   1   1.3251390011152639E+01   2.5077972504820961E-01   1.0243862147007093E+01
   15   1   1.3331695298445853E+01   1.4036584211648484E+00   1.1270136254317254E+01
   16   2   9.6083139693351942E+00   8.4600465234144195E+00   2.3362242408420189E+00
   17   1   9.2197470827080767E+00   7.6284530069128822E+00   2.6537586124024655E+00
   18   1   8.8914476591927958E+00   9.0651241482371141E+00   2.3084985301738978E+00
   19   2   2.5440469476265712E+00   3.7382824301280182E-01   4.3279636440660898E+00
   20   1   2.7810146183527471E+00  -5.8911499432485448E-01   4.2617921508377457E+00
   21   1   3.3721896995507357E+00   8.3168665169025258E-01   3.9490156115599473E+00
   22   2   6.8523844673795855E+00   3.5306867403659612E+00   3.1761374814173843E-01
   23   1   6.6427985421359317E+00   2.6069502424145150E+00   1.1742495176865143E-01
   24   1   6.6499567222368530E+00   3.5904620686737880E+00   1.3271145254704615E+00
   25   2   8.1213641138889230E+00   8.7957401400656625E+00   1.2686302307984901E+01
   26   1   7.2774656397554853E+00   8.3354475162285873E+00   1.2632567537513403E+01
   27   1   8.3138195145353251E+00   9.6940957115603563E+00   1.1371800192104546E+01
   28   2   1.3177644404537400E+01   2.6764936528161476E+00  -7.0544296174004906E-01
   29   1   1.3348605685324321E+01   3.8752472503247413E+00  -8.4881558875587848E-01
   30   1   1.2781644694838091E+01   2.3712203171792874E+00  -1.5310345503414857E+00
   31   2   1.0070788390803386E+01   1.5369710719386006E+01   1.2832859523442169E+01
   32   1   9.7080114846152785E+00   1.5972677456323542E+01   1.2079161421225820E+01
   33   1   1.1003436762125101E+01   1.5180960617554319E+01   1.2636052698609335E+01
   34   2   5.3267459370343371E+00   1.0586393262370837E+01   1.1843560615229494E+01
   35   1   4.5217478086833216E+00   1.1176692026111361E+01   1.1934225604735744E+01
   36   1   5.7610485514475442E+00   1.0793380927520197E+01   1.2726957934568295E+01
   37   2   1.2004020903488676E+01   4.2832471115837905E+00   1.1453554895772154E+01
   38   1   1.1876579156338172E+01   3.8807665686105852E+00   1.0566383484581516E+01
   39   1   1.2922839228463266E+01   4.0198428058696773E+00   1.1688934505695281E+01
   40   2   4.6100442010038165E+00   9.5360696384607966E+00   1.5464803334596732E+01
   41   1   5.1535557618447347E+00   1.0127773896867399E+01   1.4858279997640103E+01
   42   1   5.3525692556374906E+00   8.9952754025861115E+00   1.5750869125092530E+01
   43   2  -2.5268132334736397E+00   1.1799523546283057E+01   2.1252269999829911E+00
   44   1  -3.2714391216255110E+00   1.1235168224372041E+01   2.0064843969648911E+00
   45   1  -2.3054912160973449E+00   1.1744262628741915E+01   3.0821815388507630E+00
   46   2   1.2685373072806575E+01   8.5943289443406776E+00   1.3556682926346216E+01
   47   1   1.2861235063722468E+01   9.4025719873349125E+00   1.3055482258397237E+01
   48   1   1.2209743305932241E+01   8.9682280970994341E+00   1.4336357279379008E+01
   49   2  -2.9251577273843186E+00   1.5103038215231495E+01   4.1059182414456190E+00
   50   1  -3.4275400480401323E+00   1.4289828844134416E+01   4.1145205461488485E+00
   51   1  -2.0782794563891760E+00   1.4738746803872333E+01   3.6983935813199049E+00
   52   2   2.2600465357759929E+00   2.1547032288572074E+00   1.2488176244370992E+01
   53   1   1.7871123976023384E+00   2.4322968922430963E+00   1.1678454151078679E+01
   54   1   2.5913511566589924E+00   1.2777915053871780E+00   1.2215972780032045E+01
   55   2   1.4849781411669762E+00   7.2343271137092744E+00   5.1239721099971707E+00
   56   1   1.1908730905179141E+00   6.7368994792577128E+00   5.8683127716335983E+00
   57   1   3.3897700247753098E+00   6.8464973709337551E+00   4.8656521389034202E+00
   58   2   9.0233710081230531E-02   1.2564175087540506E+00   3.7032270859433849E+00
   59   1  -3.7603808703597386E-01   9.6382114232674687E-01   4.5447188621320462E+00
   60   1   1.0528964834983214E+00   1.1118013152979782E+00   3.8361447588486279E+00
   61   2   9.9447796555338073E+00   1.7482837553316834E+01   1.4787912658324659E+01
   62   1   1.0124029438939248E+01   1.6721751608091022E+01   1.4184338955128844E+01
   63   1   1.0685950545690638E+01   1.7316117627856954E+01   1.5359363717425978E+01
   64   2   6.1327886611951552E+00   1.1354983469592002E+01   8.1523421476811855E+00
   65   1   6.3497375581194646E+00   1.0412645334403356E+01   8.0084959070636472E+00
   66   1   6.3608862635505448E+00   1.1837873018591312E+01   7.3397307468298418E+00
   67   2   5.5604284756494371E+00   9.6358862186128178E+00   4.7499898764166613E+00
   68   1   4.9338964192579047E+00   8.9030451068967800E+00   4.7054003464644305E+00
   69   1   5.9711329616217128E+00   9.7263554125518805E+00   3.8378693473715009E+00
   70   2  -1.1968930104431067E-02   6.0800333977368020E+00   3.0423503703583883E+00
   71   1  -8.7063726930749330E-01   6.6160623928479190E+00   3.0639328628117100E+00
   72   1   5.5022576126381284E-01   6.4661306143313180E+00   3.8034273195716515E+00
   73   2  -5.0941778456205773E+00   1.2813576305960277E+01  -1.0943718055778595E+00
   74   1  -6.0745177836914177E+00   1.2720002429338273E+01  -9.8673557381414956E-01
   75   1  -4.9328295980053394E+00   1.3512462762085597E+01  -1.7964603129925045E+00
   76   2   5.9767417108558121E+00   5.8281926723853212E+00   6.7086482956214377E+00
   77   1   6.2112788706628237E+00   4.8194020508705577E+00   6.6311428849389999E+00
   78   1   6.8411648522025512E+00   6.3241349064123025E+00   6.7467638716034868E+00
   79   2   1.1647929622154198E+01   2.9475218145747628E+00   9.0564620465093117E+00
   80   1   1.2180273427184529E+01   3.0917310707574108E+00   8.2498700364059516E+00
   81   1   1.0691003658855692E+01   3.1562203096395711E+00   8.6477160453861170E+00
   82   2   1.2523567086905885E+01   4.5649011516913749E+00   3.7006536971778954E+00
   83   1   1.1960973925099557E+01   4.8474558514080197E+00   2.9397931814429556E+00
   84   1   1.1954295708726846E+01   4.0105546875040847E+00   4.1826796289727461E+00
   85   2   3.4949762747970641E+00   1.2835790106823474E+01   1.2375399585202805E+01
   86   1   4.1540426751513921E+00   1.3487283981322536E+01   1.2850058841076541E+01
   87   1   3.3773153099933708E+00   1.3320040699603339E+01   1.1522019843022630E+01
   88   2   1.3101348163776647E+01   2.7025122378092803E+00   6.4598450474474021E+00
   89   1   1.2290139611705337E+01   2.6070560778562379E+00   5.9540738759476239E+00
   90   1   1.3640406169229870E+01   1.9248609292450185E+00   6.2698053407583219E+00
   91   2   4.0101879676985153E+00   1.5183976927643419E+01   1.3480879349566681E+00
   92   1   3.1752103629478925E+00   1.4595655699131488E+01   1.2809491057909776E+00
   93   1   4.6527710271817266E+00   1.4784749766148773E+01   7.2887387018305905E-01
   94   2   9.3752489805225476E+00   2.9606051918805347E+00   7.8059602097703573E+00
   95   1   1.0103483075460392E+01   3.5816221634038916E+00   6.6069822411253112E+00
   96   1   9.7570535116007875E+00   2.0916242472360032E+00   7.4253918366514391E+00
   97   2   1.1620565868696769E+01   1.1335078468889986E+01   1.2901654148093614E+01
   98   1   1.1157680805714696E+01   1.0648263603247567E+01   1.3391544182385676E+01
   99   1   1.1606625753490253E+01   1.1119862627323888E+01   1.1912566381587174E+01
  100   2   1.0256235897676113E+01   6.6299728741307549E+00   1.5226121658891854E+01
  101   1   1.0328217756655039E+01   6.8568232058054397E+00   1.6124922797596202E+01
  102   1   1.0394953881964975E+01   7.5021532241785662E+00   1.4760927795748596E+01
  103   2   8.3601405123141426E+00   1.6537728646263886E+01   3.9585672601754300E+00
  104   1   8.9876600133769475E+00   1.5919851283119234E+01   3.4200834119935530E+00
  105   1   7.3869042490917352E+00   1.6265923652363021E+01   3.9325365041064995E+00
  106   2   7.5029766239151696E+00   2.8449217623054319E+00   1.0150429560699791E+01
  107   1   6.6662199253891856E+00   2.3014393062109875E+00   1.0164037352619298E+01
  108   1   7.9730532051623078E+00   2.6731048019721837E+00   9.2527560986270014E+00
  109   2   1.5349668661786962E+01   4.2777055678551852E+00   5.3403521414222199E+00
  110   1   1.4707594670778438E+01   3.5644699425410864E+00   5.5848325409790878E+00
  111   1   1.5896110276831976E+01   4.3634761973589660E+00   6.1760039179366162E+00
  112   2   9.8273049611075454E+00   2.4062507900351160E+00   1.2407188318478664E+01
  113   1   1.0021389698379270E+01   2.0519565945010902E+00   1.3345425859477761E+01
  114   1   1.0554779686751029E+01   3.0542695578052101E+00   1.2151492537162431E+01
  115   2   8.7557676812585878E+00   3.8916570355638611E+00   1.4790265380194157E+01
  116   1   9.4585917449932069E+00   4.5889914149363173E+00   1.4659617877513869E+01
  117   1   7.8926076859088106E+00   4.3339708637382754E+00   1.5082962819468307E+01
  118   2  -2.6931976605832570E+00   1.5688078015872811E+01  -1.1603623202008575E+00
  119   1  -2.7027620094517455E+00   1.5117392676192358E+01  -3.5111648639629833E-01
  120   1  -1.9113404515649313E+00   1.6288721664864532E+01  -1.2594152976408488E+00
  121   2   1.2491641825910206E+01   1.0445025687798445E+01   6.2745642313953880E+00
  122   1   1.1447708545971386E+01   1.0288123587089983E+01   6.1705274630046709E+00
  123   1   1.2800088637267123E+01   9.6684057456137733E+00   6.7914227237700455E+00
  124   2   1.4513380814267810E+01   5.4646648637381900E-01   2.1157822451636488E+00
  125   1   1.4329608153260347E+01   1.4924183727200888E+00   2.1025618109608457E+00
  126   1   1.5396046810704307E+01   5.2600796631159386E-01   2.5608266277345115E+00
  127   2   2.2515908131595497E+00   8.1140117257524409E+00   1.9289176017262533E+00
  128   1   2.1826628358515356E+00   8.8635732497290540E+00   2.5409925367784512E+00
  129   1   2.8914464933095649E+00   7.4329902921899267E+00   2.2532100954179088E+00
  130   2   1.2365811952537138E+01   9.4489062145439444E+00   1.0414637157416580E+01
  131   1   1.1840930075325474E+01   1.0217939872265926E+01   1.0051775582875095E+01
  132   1   1.3288686420815752E+01   9.8151259476512944E+00   1.0345901800612500E+01
  133   2   7.3495729137328540E+00   8.4613123152974232E+00   6.5978407048465044E+00
  134   1   6.7606870531393293E+00   8.9110198074305931E+00   5.8918003020379306E+00
  135   1   8.2833891791539784E+00   8.7929323257967571E+00   6.3373246483370069E+00
  136   2   4.1947485735696057E+00   6.2637795998838355E+00   4.5978567207122278E+00
  137   1   4.6479703315451806E+00   6.0282126612288609E+00   5.4314431185814041E+00
  138   1   9.2320573321120647E-01   1.0005462522754407E+01   4.7112138872782632E+00
  139   2   2.3700630066240488E-01   9.6211385789859545E+00   7.8806329348550852E+00
  140   1   9.4893327073960099E-01   8.1186441430366472E+00   5.1797389209497462E+00
  141   1   1.0743937784210558E+00   9.9941116716296357E+00   8.2348800336175429E+00
  142   2   2.3792818027753126E+00   8.5987121191596270E+00   1.4264374362045666E+01
  143   1   3.2253610161854485E+00   8.9263188497088315E+00   1.4712388487111271E+01
  144   1   1.8268250303999833E+00   8.2553486080467327E+00   1.4976087544530582E+01
  145   2  -3.9156414633670805E-01   9.6911291441288672E-01   8.3283242618234343E+00
  146   1  -1.8965234897237399E-01   6.2115826183805689E-01   9.2228676407072729E+00
  147   1   3.7183112822749270E-01   7.2432294618897874E-01   7.7344059259759916E+00
  148   2   1.0084639604238856E+01   1.5232318853181933E+01   2.5679313609373633E+00
  149   1   1.0561222419265905E+01   1.4573528154153294E+01   3.0619172268240988E+00
  150   1   9.6776234834106205E+00   1.4760238807022983E+01   1.8046551512451006E+00
  151   2  -1.9641735040729513E-01   1.3969057495588878E+01   3.6663460803890335E+00
  152   1  -5.4308504401077562E-01   1.3296343085847186E+01   4.3207244998522505E+00
  153   1   6.7156186178133015E-01   1.4176057331814036E+01   4.0779163002746017E+00
  154   2   1.6102121610031442E-01   1.0613695631272067E+01   1.4230675828223918E+00
  155   1   3.5675698626291474E-01   1.0877801096787595E+01   4.2332642075213656E-01
  156   1  -7.5742456811940917E-01   1.1006238226267502E+01   1.5538907723359408E+00
  157   2   9.0224618816786553E+00   2.6346394398552420E+00   3.7666114028139592E+00
  158   1   8.1213053752187676E+00   2.9965559039021432E+00   3.5496461013961831E+00
  159   1   8.8203939770377797E+00   1.6766233715069907E+00   3.9689931095395425E+00
  160   2   1.2574867642217759E+01   1.3598145018995540E+01   9.9536444321325082E+00
  161   1   1.2229179984804633E+01   1.4295581529569260E+01   9.3610172886740823E+00
  162   1   1.1893140286258955E+01   1.2878916990971096E+01   9.8488207772325822E+00
  163   2   5.4747245224739416E-01   1.1131061075412576E+01  -1.1316089473936084E+00
  164   1   3.8514311008738600E-01   1.0277446907728987E+01  -1.5901526405562141E+00
  165   1  -9.8961958960109578E-02   1.1718058302548558E+01  -1.5977775549551330E+00
  166   2   4.8718366329404912E+00   3.9890653302394798E+00   1.0494890056166142E+01
  167   1   4.0384476181701281E+00   4.2971358966010733E+00   1.0133016455473138E+01
  168   1   4.8120369624810682E+00   2.9830407179941418E+00   1.0479331717055681E+01
  169   2   9.4827127005162493E-01   1.5554450716330818E+01   1.3245198637811853E+01
  170   1   1.1466206464475699E+00   1.4592025543480394E+01   1.3434121780590759E+01
  171   1   1.7331458475134671E+00   1.5726377745523459E+01   1.2678707027509665E+01
  172   2   1.4804431983245962E+01   7.8361883994580133E+00   6.2469946280038080E+00
  173   1   1.5443028750816685E+01   7.4903991400208323E+00   6.9076014632124121E+00
  174   1   1.5356756990496345E+01   8.4021672370450560E+00   5.7626011573776177E+00
  175   2   1.5597000797321052E+00   2.7455952002485877E+00   1.0059615343220710E+01
  176   1   9.3673361937221422E-01   2.4046944798645824E+00   9.3839862254139721E+00
  177   1   1.6131845493839290E+00   3.6731798748610744E+00   9.9065460730342387E+00
  178   2   4.4635039192172234E+00   2.0066219830391305E+00   3.2750433475933809E+00
  179   1   4.0144060392283780E+00   2.1148736478964589E+00   2.4048982130898984E+00
  180   1   4.2170766767098639E-01   2.3198954197158170E+00   2.9236776187318253E-01
  181   2   1.0050035119035963E+01   7.1941271087024958E+00   1.1523831216607716E+01
  182   1   9.5780370953443459E+00   7.7613727965269597E+00   1.2246526413702998E+01
  183   1   9.5925836476319351E+00   7.6765403982140521E+00   1.0802968031008655E+01
  184   2   1.1384396197201184E+01   5.3062466703270479E+00   1.0059108391454858E+00
  185   1   1.2068383139840769E+01   4.9118874099744403E+00   3.7607883368103712E-01
  186   1   1.0685462644304296E+01   4.6690950857130513E+00   9.3197684544398318E-01
  187   2   1.4167133287367969E+01   1.5716346133179764E+01   8.1245063681536731E+00
  188   1   1.4837197048471714E+01   1.5014140677602013E+01   7.8387305667681950E+00
  189   1   1.4811711874104866E+01   1.6455933725128421E+01   8.2761135217127446E+00
  190   2   7.6284884617858593E+00   5.7327740840140908E+00   1.1600729131854667E+01
  191   1   6.8115245783936658E+00   6.2435470384896874E+00   1.1802980131809722E+01
  192   1   8.3397063344035125E+00   6.4045746047165064E+00   1.1830609532225875E+01
  193   2   7.1089756165327946E+00   1.8270463323086261E+01   1.5756305362556622E+01
  194   1   6.8024163802790012E+00   1.7542283204223693E+01   1.6263401064609560E+01
  195   1   7.9964735300611460E+00   1.8118668840795337E+01   1.5426247483177116E+01
  196   2  -2.4197157041082987E-01   5.5910032764087356E+00  -4.0664252171895493E-01
  197   1  -1.1994087188928577E+00   5.4259513175104086E+00  -4.2932094017131578E-01
  198   1   1.2706338544634652E-01   4.7412759153224160E+00  -7.4425599328305017E-02
  199   2   1.1593198940176089E+01   1.3468591325605455E+01   4.0772326033210726E+00
  200   1   1.1374046549355111E+01   1.3049278713980655E+01   4.9693063121723098E+00
  201   1   1.1349450392698733E+01   1.2822988251792685E+01   3.3690252198432242E+00
  202   2   3.0883496283943672E+00   6.0105704222708791E+00   1.2747600079121911E+01
  203   1   4.0054894032632316E+00   6.4411211702750135E+00   1.2452919283669875E+01
  204   1   2.7613726187234136E+00   6.7274526077295365E+00   1.3338786273041279E+01
  205   2   7.5542464869489434E+00   6.3435038506019916E+00   3.4486065927150551E+00
  206   1   7.1671406585948088E+00   6.6043765725500965E+00   2.5645811400296283E+00
  207   1   7.0698715375250547E+00   6.9180193749183951E+00   4.1175442647188687E+00
  208   2   5.5088723277458029E-01   1.8168303546254492E+01   1.4720673814666540E+01
  209   1   6.3674782240382488E-01   1.7159085349555173E+01   1.4825204305392894E+01
  210   1   1.0711721475750138E+00   1.8223714220945674E+01   1.3889007271710216E+01
  211   2   6.2285744985491644E-02   8.0697047764296101E+00   1.1684523813661482E+01
  212   1   5.2164648775819744E-01   8.8711426005210701E+00   1.1712474953820472E+01
  213   1  -7.4529318061193357E-03   7.7991348821336537E+00   1.0733675979781117E+01
  214   2   3.6637388242821927E+00   1.3667496338070446E+01   9.6218450305594558E+00
  215   1   4.5954193304893520E+00   1.3936333177008191E+01   9.8550174423454528E+00
  216   1   3.2622102711072833E+00   1.4178631778933944E+01   8.8211417044335505E+00
  217   2   6.5139692923444406E+00   1.0980205353489737E+01   1.4159938064862445E+01
  218   1   7.2034676156117410E+00   1.0388668315081055E+01   1.3801513641215189E+01
  219   1   6.8787729472415382E+00   1.1886094291726259E+01   1.4071719461591616E+01
  220   2  -2.1775266418647283E+00   1.8099222107555981E+01   1.4016231527027980E+01
  221   1  -2.1328492684958671E+00   1.8724879434021677E+01   1.3333057400580826E+01
  222   1  -1.2275879344287608E+00   1.8093583724398201E+01   1.4336326057923701E+01
  223   2   2.3824753872292983E+00   1.4477100424845236E+01   7.2673763470960520E+00
  224   1   2.3281198918920958E+00   1.5426579277286919E+01   7.4633105587118820E+00
  225   1   3.0068161207999595E+00   1.2512086587365006E+01   7.4398770043828293E+00
  226   2   1.4178110010206250E+01   8.0007085352616834E+00  -1.7067605427147656E-01
  227   1   1.3245740515273475E+01   8.1442854246800387E+00   2.4177577484364268E-01
  228   1   1.4108519503033051E+01   7.0716453395283292E+00  -5.1636106579856089E-01
  229   2  -1.6359889120119400E+00   1.2678629238459997E+01  -2.0553920129394125E+00
  230   1  -1.7771395239287993E+00   1.3386933990544232E+01  -1.3629652229996416E+00
  231   1  -2.3623724742512615E+00   1.1978770154625243E+01  -1.9905947929218388E+00
  232   2   7.0877984738212705E+00   1.2998126328287196E+01   5.8005373422859456E+00
  233   1   7.4083401594582705E+00   1.2546486810165375E+01   4.9725628687141201E+00
  234   1   6.2627249497070672E+00   1.3498285046312411E+01   5.6965132741482343E+00
  235   2   1.8055843864234267E+00   5.5096777354573137E+00   1.0341852536612185E+01
  236   1   1.0842846296272597E+00   6.1445353368719688E+00   1.0052410066348223E+01
  237   1   2.0565244521658466E+00   5.6907044959292792E+00   1.1344711081618387E+01
  238   2   8.7574885655410011E+00   1.4796065162400566E+01   6.3534936579462071E+00
  239   1   7.9632443764234395E+00   1.4241684301694717E+01   6.2987232876774515E+00
  240   1   8.7523962932625086E+00   1.5461080043756922E+01   5.5749152309124526E+00
  241   2  -2.5590189583898866E+00   1.2018045687048573E+01   1.4586052720326769E+01
  242   1  -3.4529553710154453E+00   1.1691327974209841E+01   1.4382461314502295E+01
  243   1  -1.9707247179155924E+00   1.1503769050274745E+01   1.4056443703110558E+01
  244   2   2.7754222736121146E+00   4.6252908547384024E+00   7.0410446090858079E+00
  245   1   3.2718222459245476E+00   3.8840003705324251E+00   7.5152667645852294E+00
  246   1   2.7817888046089494E+00   4.3025038702052543E+00   6.1307836087517167E+00
  247   2  -1.8573617304002619E+00  -1.9168015603578277E+00   1.5001447833076201E+01
  248   1  -2.0847486477644819E+00  -2.9190631934727116E+00   1.5075441094625067E+01
  249   1  -2.6002402754092899E+00  -1.6289492676057482E+00   1.5546199785294110E+01
  250   2   1.6288893118280122E+01   7.0644808093009042E+00   8.9870133588280225E+00
  251   1   1.5291121024603120E+01   7.0872280207903851E+00   9.1391904362407708E+00
  252   1   1.6732143060936576E+01   8.6658932825020063E+00   8.2285299071141758E+00
  253   2   4.7326910734670706E+00   1.1624800873897309E+01   5.7611416866362597E-01
  254   1   4.4844244109825695E+00   1.0798223428156222E+01   1.7957363985711206E-01
  255   1   4.1447302146342029E+00   1.1837511590557828E+01   1.3188694153830471E+00
  256   2  -1.0717685302891218E+00   1.3997343075743713E+01   1.1307912098531370E+01
  257   1  -8.4126317163453979E-01   1.3097005735602760E+01   1.1536716681637467E+01
  258   1  -1.7619373210797367E+00   1.3903328394506936E+01   1.0646865517062409E+01
  259   2  -1.9923701824567388E+00   3.7348078525762589E+00   1.2041916870929152E+01
  260   1  -1.8490848696803306E+00   4.6240097167163476E+00   1.2420454261921408E+01
  261   1  -1.5161408578050453E+00   3.7849135257510826E+00   1.1164096021014721E+01
  262   2   3.0347545607059430E+00  -4.4670599900591096E-01   1.1682774882987013E+01
  263   1   2.7715640425841102E+00  -8.4215801029430593E-01   1.0815841854139817E+01
  264   1   3.7660430664919078E+00  -1.0421213771765234E+00   1.2101485820125617E+01
  265   2  -3.5856312099363512E+00   1.0646880334024249E+01  -2.1831761377438914E+00
  266   1  -3.0090518945063534E+00   9.8605785656307763E+00  -1.8550169461888935E+00
  267   1  -4.2466000023556463E+00   1.0891837522246080E+01  -1.5166874978615434E+00
  268   2   1.4683151975512558E+01   7.6477272283822295E-01   5.6245716326371635E+00
  269   1   1.4368821242773061E+01   9.4468186104559634E-02   4.9294105840604843E+00
  270   1   1.4716345145100078E+01   2.5835225090347569E-01   6.4125635930349505E+00
  271   2  -8.5399252938774917E-01   1.1409899363593127E+01   1.2313919247928824E+01
  272   1   4.4947253745254490E-02   1.1044577115031586E+01   1.2333781914454150E+01
  273   1  -1.2228491525256224E+00   1.1053637687197474E+01   1.1449868118159742E+01
  274   2   4.8218770126752455E+00   4.6711091341690354E+00   1.5106803840247991E+01
  275   1   4.1836549025682217E+00   5.0180911590344328E+00   1.5761840556158724E+01
  276   1   5.4413720705466284E+00   5.3898820697940710E+00   1.5055831374805459E+01
  277   2   9.2239466330356379E+00   1.3627544517174508E+01   1.0136294179103293E+01
  278   1   9.2913320587805419E+00   1.3877331505779356E+01   1.1083615046888248E+01
  279   1   9.7018698539321058E+00   1.2739921717824922E+01   1.0201335349814038E+01
  280   2  -6.5923097446620704E-01   1.3799178911370783E+01   7.1643767660342172E+00
  281   1  -7.7699724553441463E-01   1.3382992149517266E+01   6.3397181168515671E+00
  282   1   3.5222193758509290E-01   1.4060523130211761E+01   7.1184568845795306E+00
  283   2   6.5031312139348172E+00   7.8340986786611975E+00   9.9568078534856030E-01
  284   1   6.5151895749875033E+00   8.5982834856206498E+00   1.6545429233003635E+00
  285   1   7.4342587299589740E+00   7.6619912000404193E+00   6.4196286379471557E-01
  286   2   4.2533925210054155E+00   9.1008367305148461E+00  -3.2031784367775590E-01
  287   1   3.6051165731119355E+00   8.8406175424193805E+00   3.8671688310580404E-01
  288   1   5.0953473272516145E+00   8.6240205483387999E+00  -5.4547057486720757E-02
  289   2   1.8019187758993578E+01   1.4123751868983003E+01   9.3004164439208192E-01
  290   1   1.7504789940638975E+01   1.3952456677377450E+01   1.7411358941863297E+00
  291   1   1.7915462675978731E+01   1.5083887292051754E+01   8.6640649752462451E-01
  292   2   9.9822967320929141E+00   9.6167765712553503E+00   1.4471119664033480E+01
  293   1   9.5617045699776835E+00   1.0288931640687538E+01   1.5021810572063666E+01
  294   1   9.3082689045194407E+00   9.2631650143204372E+00   1.3786128872229154E+01
  295   2   1.7709423296387210E+00   1.0889761560056687E+01   1.2541696698073002E+01
  296   1   1.8453324740940489E+00   1.0378795985077154E+01   1.3363914781969523E+01
  297   1   2.3264154121031502E+00   1.1803831048761172E+01   1.2721869895707473E+01
  298   2   1.2864433410771332E+01   1.6958743091791586E+01   1.5910419757730107E+01
  299   1   1.3384561689118016E+01   1.7267446554094683E+01   1.5151522489439126E+01
  300   1   1.3398384326984221E+01   1.7128623263541307E+01   1.6661308987323132E+01
  301   2   1.8535247193783228E+01   1.0485468585143979E+01   3.6047704912175020E+00
  302   1   1.9121222579729377E+01   1.1242564534216838E+01   3.7234358343631442E+00
  303   1   1.7964280861005001E+01   1.0746212717030389E+01   2.7895370172974756E+00
  304   2   8.3815896521108915E+00   6.1903769000997810E+00  -8.4317508888926210E-02
  305   1   7.6563692213761048E+00   5.5057485946833538E+00  -4.3203085665662805E-02
  306   1   9.1596680066825051E+00   5.8720778674728873E+00  -6.8590256413476913E-01
  307   2   4.2905979121886482E+00   2.1919319038376184E+00   7.5750198674502940E+00
  308   1   4.6495329918422179E+00   1.8600822304297464E+00   8.4792889942512506E+00
  309   1   5.0217901077226443E+00   2.3258962892614998E+00   6.9709201621091177E+00
  310   2  -1.5839617963926389E+00   3.6609871027973995E+00   9.3925954094209132E+00
  311   1  -8.5640346075019447E-01   3.9857786105967783E+00   8.8380822544129103E+00
  312   1  -1.9427772819970623E+00   2.7580340397142673E+00   9.1718957044419476E+00
  313   2   1.3032428124126762E+01   1.4137367598560642E+01   9.6615428463952580E-01
  314   1   1.3511789648676240E+01   1.3357534492365264E+01   1.3568685723791998E+00
  315   1   1.2456068946415547E+01   1.3774734099396069E+01   2.3366084234954723E-01
  316   2   6.8022338141420304E+00   8.3479133437319071E+00   9.2780364814141159E+00
  317   1   7.4706671802660338E+00   8.8509200934938868E+00   9.7390307942298140E+00
  318   1   7.0518144236355198E+00   8.3670685003293155E+00   8.3096675901565416E+00
  319   2   8.8930600621474429E+00   2.0397347176909419E-01   1.0869778241127799E+01
  320   1   9.2265448931299314E+00   1.1104704346183141E+00   1.0911943610287368E+01
  321   1   8.0401920343279993E+00   2.3533515903760188E-01   1.1377249129821642E+01
  322   2   6.7898854639790223E+00   3.2979662459161214E+00   6.4268148644401348E+00
  323   1   7.5746028758099060E+00   2.9319158495155277E+00   6.9766347467849394E+00
  324   1   7.1254129189867612E+00   3.3083709281918896E+00   5.4741011517221949E+00
  325   2   1.0469564693316293E+00   1.5416266671845449E+01   9.6717670792428887E+00
  326   1   1.3556207725212881E+00   1.4700537563524362E+01   9.0848397034984458E+00
  327   1   4.8942594588010918E-01   1.4965939513200993E+01   1.0350277566950531E+01
  328   2   6.0699869684312651E+00   2.5089318064173645E+00   1.3295678439273168E+01
  329   1   6.3324260549168674E+00   2.1556853817563946E+00   1.4180107124991558E+01
  330   1   6.1196698290164067E+00   1.6810965064514045E+00   1.2778016655895833E+01
  331   2   3.7787904162702102E+00   3.6605833405872277E+00   6.4173743430384600E-01
  332   1   4.2766445675519149E+00   3.3906786220425000E+00  -1.0003089692150982E-01
  333   1   4.0249800582109021E+00   4.5661939316120188E+00   8.8792178447245185E-01
  334   2   2.4914880089126132E+00   1.4470487297269187E+01   4.6810994706904587E+00
  335   1   2.5130249921259940E+00   1.4263468410664521E+01   5.7225487928120424E+00
  336   1   2.9001239411764166E+00   1.3736008382092489E+01   4.1983157571328729E+00
  337   2   8.3947095426440583E+00   5.7964595027163659E+00   7.9735463983207362E+00
  338   1   9.0769131580906155E+00   6.4728596317160543E+00   8.0077037287823529E+00
  339   1   8.8702128361655355E+00   5.0290117890886004E+00   7.6089676437372979E+00
  340   2   5.6172494076015713E+00   1.6135909045624238E+01   3.7567581231895670E+00
  341   1   5.0411743980513837E+00   1.5696054833115459E+01   3.1501940395878751E+00
  342   1   5.4089710792404038E+00   1.7135405198646904E+01   3.6030982912382816E+00
  343   2  -7.7017562213817181E-01   1.2047502336366069E+00  -3.4067952431080473E-01
  344   1  -1.0851281380977904E+00   6.0704193062107026E-01   3.7685989924095131E-01
  345   1  -1.6240379739326019E+00   1.7549246647111842E+00  -3.8323701378195846E-01
  346   2   1.2480249169785955E+01   9.5398405552493806E+00   3.5256696112510926E+00
  347   1   1.1481146195429286E+01   9.5973806390280210E+00   3.2920675075717010E+00
  348   1   1.2628904043698167E+01   9.7529989558283869E+00   4.4868496301296465E+00
  349   2   1.0628883017159289E+01   1.2731933258683686E+01   6.7990449922829219E+00
  350   1   1.0188746224021111E+01   1.1896602163557707E+01   6.6201158902659021E+00
  351   1   9.9394164445245039E+00   1.3361412832127195E+01   6.6450549537534620E+00
  352   2  -4.2257102028684015E+00  -2.1806027489784015E+00  -3.1119445817720477E+00
  353   1  -3.4471307174802308E+00  -1.7776591759476583E+00  -2.6483530672164730E+00
  354   1  -3.8791769202759085E+00  -2.9595844090451187E+00  -3.5330606293238036E+00
  355   2   1.1512286157447386E+01   1.1712384993695009E+00   7.7696284901585477E-01
  356   1   1.2179495007510658E+01   1.7737734277048058E+00   3.2806393965744740E-01
  357   1   1.0713378858767518E+01   1.7484745237153885E+00   1.0052737097863145E+00
  358   2   7.0021326214047965E+00   5.5636262935210912E-01   1.0169965724887402E+00
  359   1   7.2939907856260833E+00   9.1743082233360196E-01   1.8781171188765196E+00
  360   1   6.4684267142394942E+00  -2.0404173562900541E-01   1.1368626187207280E+00
  361   2   6.2997969882337284E+00   1.6763738115354080E+01   1.2068701704520356E+01
  362   1   5.7697905589338472E+00   1.6058510528737937E+01   1.2545127883093654E+01
  363   1   5.8374045892328734E+00   1.7031600209873559E+01   1.1266857472332680E+01
  364   2   1.0362734398441305E+01   1.2010175234424857E+01   2.1197955251137772E+00
  365   1   1.0013326625251619E+01   1.2355982485887134E+01   1.2219945313337111E+00
  366   1   9.5404062456853893E+00   1.1736709682443367E+01   2.6098802966186110E+00
  367   2   4.0653589251141922E+00   1.2010812363784030E+01   4.5581070455099795E+00
  368   1   3.7713316635147960E+00   1.1853300650931242E+01   5.5314793072750001E+00
  369   1   4.6952528443120487E+00   1.1238942316223875E+01   4.5508509676254647E+00
  370   2   6.6188056474973740E+00   6.8321233304161737E+00   1.4846627515506423E+01
  371   1   7.5879307329860586E+00   6.9403384820461076E+00   1.4898712840618671E+01
  372   1   6.3815744465213076E+00   7.1341464596377264E+00   1.3949707072601489E+01
  373   2   2.5096663043829204E+00   3.9757242436331124E+00   4.1605806595638182E+00
  374   1   3.2552822830921087E+00   3.3238514782526831E+00   3.8534239822415004E+00
  375   1   3.1019436617064522E+00   4.7991462056792322E+00   4.1029548490773813E+00
  376   2   2.0746725845352629E+00   6.9090381793337985E-01   7.0044054375157936E+00
  377   1   2.2313788896765390E+00   4.7198426508419228E-01   6.0318528712469162E+00
  378   1   2.7986044687670759E+00   1.3591974812743099E+00   7.2883862698096529E+00
  379   2   9.3272203278915331E+00   1.6237954520178938E+01  -5.2085113441365061E-01
  380   1   1.0139241696155274E+01   1.6653006726097189E+01  -1.5983056738093299E-01
  381   1   8.5538791676914325E+00   1.6752031657145125E+01  -2.4228484331832933E-01
  382   2   1.4746038865807034E+01   6.3917605786099188E+00   1.2911105782216667E+01
  383   1   1.5424871093257513E+01   7.0092251835318500E+00   1.2587403321112616E+01
  384   1   1.4298627473582041E+01   6.9459392936220778E+00   1.3623803763486814E+01
  385   2   6.5394788088628859E+00   3.4713384580654858E+00   3.1616560179264539E+00
  386   1   6.2177464745065052E+00   4.3887497008423697E+00   3.2063413289534446E+00
  387   1   5.5908820948279638E+00   2.8525863649949970E+00   3.1898373501711914E+00
  388   2   4.4632679061821818E+00   6.1465319224800687E+00   2.0192698475022133E+00
  389   1   4.4860675062153152E+00   6.1802431565548233E+00   3.0138726988768272E+00
  390   1   5.2609533346873603E+00   6.7041497601710107E+00   1.6909227980381574E+00
  391   2   1.1443615360262756E+01   9.6868533922832650E-02   8.9700987385318829E+00
  392   1   1.1613659576947150E+01   1.0766962284557351E+00   9.0904891993776076E+00
  393   1   1.2314571723427045E+01  -2.6038164549851034E-01   8.6554579079481400E+00
  394   2   1.2858847416157204E+01   1.4641125250781643E+01   1.2469075593026069E+01
  395   1   1.2703158718788091E+01   1.4025451910710871E+01   1.1733050422045801E+01
  396   1   1.3189263548506938E+01   1.4114058400875614E+01   1.3187039416699134E+01
  397   2   6.1661823889447405E+00  -2.2457407591183225E+00   1.0147360332889829E+01
  398   1   6.5035079881073505E+00  -1.9159363556217437E+00   1.0970161570070244E+01
  399   1   6.4172187649391281E+00  -1.5216554134960114E+00   9.4655752966152846E+00
  400   2   8.8317607034788086E+00   1.3469167070408426E+01   1.8320485386262120E-01
  401   1   7.8871518688880009E+00   1.3363179225649551E+01   3.2582393253338437E-01
  402   1   8.8590831811139648E+00   1.4411336398067524E+01  -1.4147076412807083E-01
  403   2  -1.7911473738180199E+00   1.1151564575537535E+01   9.7097635903530009E+00
  404   1  -2.4667225155494790E+00   1.1778841184261585E+01   9.3776667911887053E+00
  405   1  -1.2699067649788296E+00   1.0738171340168291E+01   8.9989680011478193E+00
  406   2   8.3690206350518928E+00   1.1165276086189932E+01   3.9991906069490999E+00
  407   1   7.7440438304764774E+00   1.0639834339491555E+01   3.4646205534021313E+00
  408   1   8.7940203141376667E+00   1.0557472669565666E+01   4.6680197976251474E+00
  409   2   5.0542556586483212E+00  -1.6888791156584904E+00   6.5182609195063002E+00
  410   1   5.0512689824829033E+00  -1.1119960525107482E+00   5.7020468802187114E+00
  411   1   4.0655949381492338E+00  -1.8074169270968570E+00   6.6558110096957490E+00
  412   2   1.1870195162493454E+01   6.0235908274888255E+00   6.6656113715992804E+00
  413   1   1.1152431367805244E+01   5.4516867926969317E+00   6.2530759324852001E+00
  414   1   1.1477032371809523E+01   6.8672596387137244E+00   7.0041964125183904E+00
  415   2  -1.8456129380146145E+00   1.1631421939131485E+01   5.0527750208186193E+00
  416   1  -1.2642736735931337E+00   1.0816710763116362E+01   5.0836440441059070E+00
  417   1  -2.6576872239992153E+00   1.1241501417204734E+01   5.5279412284582072E+00
  418   2   1.0723536415286864E+01   8.0842751416915863E+00   8.0705932649628718E+00
  419   1   1.0270644334712255E+01   8.7545473986155251E+00   7.4645170827475225E+00
  420   1   1.1143780907976032E+01   8.4409464012467055E+00   8.8716013971609389E+00
  421   2  -2.6690946970853071E+00   7.3926489968684486E+00   3.1106200512188869E+00
  422   1  -2.9490786539225051E+00   7.1199523393710740E+00   2.1822892367422546E+00
  423   1  -3.1948005032107822E+00   8.2345567063430796E+00   3.2734007815378430E+00
  424   2   5.9324162403306797E+00   1.3892123596291743E+01  -3.5400314806928762E-01
  425   1   5.6427086522851990E+00   1.4087505346901780E+01  -1.2904002107368233E+00
  426   1   5.6365135747039554E+00   1.2992544037913525E+01  -1.5646500033414804E-01
  427   2   1.4340427181290460E+01   3.4594393793525922E+00   1.9415644078349190E+00
  428   1   1.3627957804574434E+01   3.7560029873128751E+00   2.5481951677648960E+00
  429   1   1.4071676598237719E+01   3.6198165867900229E+00   9.9931570359452970E-01
  430   2   1.8149545272563543E+01   7.7128414255477633E+00  -1.2494667661189058E+00
  431   1   1.9116477447699733E+01   7.9075659380647023E+00  -1.3676278033847395E+00
  432   1   1.8046889127510102E+01   6.7409450390175669E+00  -1.5158386976189266E+00
  433   2   7.4487216722476033E+00   1.3237072063419170E+01   1.3027558635453095E+01
  434   1   6.7175352976629013E+00   1.3960577430820839E+01   1.3188848673575386E+01
  435   1   8.3188604566245825E+00   1.3624405967150217E+01   1.3289149980050496E+01
  436   2   4.0941091228581898E+00   6.6522761059422084E+00   9.0731237200997317E+00
  437   1   3.2673332356638749E+00   6.3041875715335989E+00   9.3270890919437974E+00
  438   1   4.1027167193335048E+00   6.8036514798839063E+00   8.1336262081669268E+00
  439   2   1.3161506087206302E+01   6.2311664085169554E+00   9.2711471233351705E+00
  440   1   1.2646902418917547E+01   6.1733749655642223E+00   8.4841568953932889E+00
  441   1   1.3567783476651313E+01   5.3432059941082750E+00   9.3301392693742482E+00
  442   2   9.6680935310606912E+00   3.2953711608850784E+00   1.0339418850629771E+00
  443   1   8.7275545983813352E+00   3.2539641026654516E+00   6.5409636801102555E-01
  444   1   9.4878806451355739E+00   3.2204523683983450E+00   1.9645195859673847E+00
  445   3   7.8395841296056892E+00   3.4597722318168103E+00   1.2543998089753263E+01
  446   2   5.0630553464503629E+00   1.4814387394071618E+01   1.3193923483005992E+01
  447   1   4.8199068859275762E+00   1.4847362542649188E+01   1.4171455077630721E+01
  448   3   4.8829488251441768E+00   8.6044362290252039E+00   1.0346525171364247E+01
  449   2   9.1549720881332652E-01   3.0096916697515681E+00   8.5964625868458089E-01
  450   1   1.8525478053335007E+00   3.1059109032394314E+00   5.5656265833696528E-01
  451   3   1.2516018374025007E+01   7.0563949815532832E+00   1.1304204683007821E+01
  452   2   1.3470159277674579E+01   5.0709437910991717E+00  -6.2626852614164208E-01
  453   1   1.3187234683089114E+01   5.3107489100179359E+00  -1.5081598071447291E+00
  454   3  -1.6734800588878234E+00   1.5967292549048686E+01   1.2741347321224927E+01
  455   2   3.1832649692402062E+00   1.1617023556462307E+01   7.1172403061769272E+00
  456   1   4.1251437786117737E+00   1.1489524658173272E+01   7.3364821279461605E+00
  457   3   1.3595875377947795E+01   5.9336068890500613E+00   5.3340734538420147E+00
  458   2   5.5048569310868398E+00   7.2542040680192326E+00   1.2217936027476004E+01
  459   1   5.3173339912019282E+00   8.1930824426179587E+00   1.2433061379739428E+01
  460   3   6.5561457742253912E+00   5.7211231894120367E+00   9.6447409408445566E+00
  461   2   1.0870554544092833E+01   1.1557934041816845E+01   9.9081992226339484E+00
  462   1   1.0530489394521229E+01   1.1417089823503773E+01   8.9926612671755581E+00
  463   3   1.2515179628149355E+01   1.6131177143024811E+01   2.1086589907584958E+00
  464   2   8.4863058840374705E+00   1.0241820052159051E+01   1.0510775955968732E+01
  465   1   9.3657756501339406E+00   1.0700692893545414E+01   1.0649122457857148E+01
  466   3   6.9587490863109966E+00   1.2123716554659492E+01   1.0238182488027038E+01
  467   2   2.6606289201019001E-01   9.5494477674717668E+00   5.2958531007726606E+00
  468   1   4.8887348487431620E-01   9.7675079365341659E+00   6.2762803530829228E+00
  469   3   5.3674973446924908E-02   7.6246831484787156E+00   1.0105379646576065E+00
  470   2   5.0738463280884192E+00   1.4086829587606380E+00   9.8131103116636851E+00
  471   1   4.2286804745403517E+00   9.4529147318991968E-01   1.0007764443611878E+01
  472   3   4.0747015487322722E+00   3.8379598366741741E+00   1.2877662311809473E+01
  473   2   9.8304562113848419E+00   9.9564268458954004E+00   5.9662862275680171E+00
  474   1   1.0108339334703842E+01   9.2361441676941904E+00   5.3345587093423132E+00
  475   3   9.0407692963878645E+00  -1.1342188493864924E+00   8.7747529719720330E+00
  476   2   1.0522221000636636E+01   4.0886961691912775E+00   5.7779541757311357E+00
  477   1   9.8907252620283064E+00   3.8579928982606733E+00   5.0691091337169070E+00
  478   3   1.7642821052911054E-01   3.6432369116888608E+00   3.1471226950690796E+00
  479   2   6.8330356319238241E+00   9.8384758919813873E+00   2.5745487219310812E+00
  480   1   6.3802477992593127E+00   1.0478141068336299E+01   2.0312244898220122E+00
