Generated by runner2lammps.sh, original comment line:  NaOH-12a

  480 atoms
  3 atom types

  0.0000000000000000E+00   1.6629999688598279E+01 xlo xhi
  0.0000000000000000E+00   1.6629999688598279E+01 ylo yhi
  0.0000000000000000E+00   4.4099999229264021E+01 zlo zhi

Atoms

    1   2   6.1203090750844122E+00  -6.6151966589346267E-01   9.2815666225727789E+00
    2   1   5.5332811556703314E+00   1.3471317117407025E-01   9.5944966232410742E+00
    3   1   5.9589036763306433E+00  -7.4955146960965036E-01   8.2675763058061751E+00
    4   2   1.0946443318402956E+00   5.6726891870392251E+00   7.5404047987032277E+00
    5   1   7.4682144439041087E-01   6.0211116322664688E+00   8.3644326686532100E+00
    6   1   2.0531472432204718E+00   5.3514696253979901E+00   7.7003464932979693E+00
    7   2   1.1935626336806946E+01   8.6029137861960230E+00   6.3686159550367683E-01
    8   1   1.1524050295972083E+01   7.7797394790835339E+00   3.5537054197634610E-01
    9   1   1.1455622391126209E+01   8.8723052028483949E+00   1.4743617880077626E+00
   10   2   2.8022594957469726E+00   1.0503690802322600E+01   9.5987602040108779E+00
   11   1   3.0290849560928534E+00   1.0846352095279666E+01   8.7124185426833485E+00
   12   1   2.6167913509631098E+00   1.1340148515725717E+01   1.0043328327093990E+01
   13   2   1.4017651309478692E+01   9.3452906712112838E-01   1.1053954135168226E+01
   14   1   1.4543036963392955E+01   3.3400659971018237E-01   1.0484411818258376E+01
   15   1   1.4284131722306478E+01   1.7063488428464637E+00   1.0576766999768941E+01
   16   2   1.0912800877365324E+01   9.1045923011643808E+00   3.0593777053999607E+00
   17   1   1.0095388780877432E+01   8.6956748466255931E+00   3.5286843338085663E+00
   18   1   1.0880389302514926E+01   1.0040889878516696E+01   3.2286477358281496E+00
   19   2   2.5568234021513470E+00   2.8069093758790642E-01   4.2862163249013241E+00
   20   1   2.6596716385315178E+00  -5.7571252316228805E-01   3.7129904054423131E+00
   21   1   3.1312383827981134E+00   1.0053938330126699E+00   3.9736530440385973E+00
   22   2   7.3457395540336536E+00   3.9196436305958287E+00   1.1022401414927407E+00
   23   1   7.5118768553868476E+00   2.9395058382186781E+00   1.1822676107514334E+00
   24   1   7.0386088063945582E+00   4.1212670263814681E+00   2.0442554785841311E+00
   25   2   8.6992647848088307E+00   8.7543383736181219E+00   1.2737153062669453E+01
   26   1   7.8299472834596200E+00   8.3443667980797773E+00   1.2921105114750636E+01
   27   1   8.8252179564715050E+00   9.7991511460776550E+00   1.1193923094378249E+01
   28   2   1.3578001888549649E+01   2.8003941460866084E+00  -5.3626659567778456E-01
   29   1   1.3732104641824543E+01   3.7851728225833035E+00  -1.6428359359141961E-01
   30   1   1.3676452133149029E+01   2.8503542955290633E+00  -1.4978752480953161E+00
   31   2   9.5392992069649676E+00   1.5393931160224270E+01   1.3806464094001772E+01
   32   1   9.2193263868272286E+00   1.5959985670152143E+01   1.3053816408544520E+01
   33   1   1.0500508330589996E+01   1.5274178887092134E+01   1.3578088144434652E+01
   34   2   4.9871956768867136E+00   1.0826818576978097E+01   1.1711968531231829E+01
   35   1   4.1454488372835012E+00   1.1223712596159965E+01   1.2043990716409709E+01
   36   1   5.6230095015173349E+00   1.0765443016791421E+01   1.2511988689581411E+01
   37   2   1.2215472707569905E+01   4.2198172854732761E+00   1.1763259032176739E+01
   38   1   1.1920525206804728E+01   3.9599563503480417E+00   1.0832601425513831E+01
   39   1   1.3128990264445807E+01   3.8973657992903883E+00   1.1938407692215421E+01
   40   2   5.3497265156728160E+00   8.4728414991414969E+00   1.5180987605591961E+01
   41   1   6.0833497513031860E+00   9.1066973681002459E+00   1.4933273933290460E+01
   42   1   5.5970321923464743E+00   7.5961255712386544E+00   1.4758034783949105E+01
   43   2  -1.8051599863021184E+00   1.1913926367013312E+01   2.7321625659851305E+00
   44   1  -2.4685370641978159E+00   1.1524046591731622E+01   3.2993918493161272E+00
   45   1  -1.3329259495754602E+00   1.2570820494926281E+01   3.2901185479123760E+00
   46   2   1.2488635570188068E+01   7.5735693927214838E+00   1.4245307048864888E+01
   47   1   1.2088083878140260E+01   8.3484811508767507E+00   1.4620211109142803E+01
   48   1   1.2224751829922951E+01   6.9199207086289451E+00   1.4929315158592818E+01
   49   2  -2.9624440826804683E+00   1.5794572283220333E+01   4.5985472969694685E+00
   50   1  -3.5231449067887950E+00   1.5215846625032198E+01   5.0973269791890390E+00
   51   1  -2.1187186494942476E+00   1.5236904702871781E+01   4.4686110084575574E+00
   52   2   2.6633970460801599E+00   2.4045299057527032E+00   1.3462256545241138E+01
   53   1   1.8807460712489137E+00   2.6196552580161283E+00   1.2882270386942082E+01
   54   1   2.8202615752068119E+00   1.3664376838425667E+00   1.3283193032213131E+01
   55   2   1.9963654703817744E+00   7.0775377277462459E+00   5.1014296900874232E+00
   56   1   1.5016652152634096E+00   6.7766523295232126E+00   5.8771235721570214E+00
   57   1   3.8420667809902271E+00   6.7628175205812084E+00   4.8962819740924148E+00
   58   2   3.3449291356489864E-03   1.5366311284997871E+00   4.3101541851101866E+00
   59   1  -1.7925719188636091E-01   1.3623566692097355E+00   5.2218460806163689E+00
   60   1   8.2328278844025382E-01   1.0207172174425050E+00   4.1000454327844214E+00
   61   2   9.2493450223402753E+00   1.7958491662342762E+01   1.5616801550112969E+01
   62   1   9.1352411867328840E+00   1.6990512245510729E+01   1.5404717908444656E+01
   63   1   1.0226180219758465E+01   1.8066639608467202E+01   1.5743350046135335E+01
   64   2   6.2485091331748617E+00   1.2505427421371808E+01   7.6834911408491964E+00
   65   1   6.7311780152781786E+00   1.1737088044147526E+01   7.1849083125512312E+00
   66   1   6.4449328337086591E+00   1.3307015531790514E+01   7.2000999318561210E+00
   67   2   6.0467328051759326E+00   9.2798923058847258E+00   4.4210379774031603E+00
   68   1   5.5301092674818992E+00   8.5012720738514922E+00   4.5482394781009550E+00
   69   1   6.5723047294676276E+00   1.0247110765890772E+01   3.2309523025716640E+00
   70   2  -3.3376264901701133E-02   6.6148331141923080E+00   3.1415012455819733E+00
   71   1  -6.5754236999351989E-01   6.9776460044306017E+00   3.7656350708640662E+00
   72   1   7.8660974952888763E-01   6.6281519753559133E+00   3.7425740572898780E+00
   73   2  -4.5014422208343863E+00   1.2998749169861732E+01  -3.7714353822476848E-01
   74   1  -5.4682891984399875E+00   1.3242662291450968E+01  -4.1609627255084375E-01
   75   1  -4.1879041955533927E+00   1.3560510994273329E+01  -1.1069688690289152E+00
   76   2   6.6785169453629587E+00   6.0425935810501539E+00   6.1135969913703523E+00
   77   1   7.0750225484737035E+00   5.2168072552359472E+00   6.4069527270920172E+00
   78   1   7.3727339417994706E+00   6.4674345069733432E+00   5.5769239875963521E+00
   79   2   1.1266038306013746E+01   3.1094637990180654E+00   9.5739698393189396E+00
   80   1   1.1908726671761471E+01   3.2039579148058475E+00   8.8420950051858309E+00
   81   1   1.0314122063349188E+01   2.9765672932011671E+00   9.2246710766342304E+00
   82   2   1.2708097000498876E+01   5.8317614434802136E+00   4.0102731652291022E+00
   83   1   1.3260365385787939E+01   6.6301348023565909E+00   3.6698614045858560E+00
   84   1   1.1898804599099959E+01   5.6842014372126215E+00   3.4034857688453757E+00
   85   2   3.1433750620776753E+00   1.2982056274816005E+01   1.2794239112403103E+01
   86   1   3.8436865924257946E+00   1.3680319360189579E+01   1.3037374872672885E+01
   87   1   2.6323957284907187E+00   1.3326736908001141E+01   1.2037162213709754E+01
   88   2   1.2973200494229850E+01   3.7419755578669354E+00   7.3126014188758282E+00
   89   1   1.2071216354615689E+01   3.9398883630657737E+00   6.9498673760416185E+00
   90   1   1.3100251708600398E+01   2.9083912767065931E+00   6.8818675755575134E+00
   91   2   5.6222993457033752E+00   1.5813355428240087E+01   1.8726687103366300E+00
   92   1   4.6688929400193606E+00   1.5617058201059148E+01   2.0376349425271618E+00
   93   1   5.9524180804618707E+00   1.5092385348844887E+01   1.2482602420832660E+00
   94   2   9.0937478726282528E+00   2.3959339511759774E+00   8.2477903699760979E+00
   95   1   1.0086905011868934E+01   3.2628167081883546E+00   7.1066779290929913E+00
   96   1   9.4683857567702336E+00   1.5543273435330474E+00   8.1457078530167930E+00
   97   2   1.1208990886216325E+01   1.1092964020632831E+01   1.3067258567997733E+01
   98   1   1.0279441905805461E+01   1.0840569775921139E+01   1.3219835174202986E+01
   99   1   1.1283953071234164E+01   1.1546534506388882E+01   1.2172029904628738E+01
  100   2   1.1421667735535493E+01   4.9408820875888182E+00   1.4637866577530998E+01
  101   1   1.0480841459631858E+01   5.0904016370599079E+00   1.4546314157845902E+01
  102   1   1.1596045384381224E+01   4.8877145950849545E+00   1.3668238773694132E+01
  103   2   8.5641912439556940E+00   1.7274644422486251E+01   4.1056473027148090E+00
  104   1   9.1544307398488538E+00   1.6502019239049403E+01   4.0082432414568592E+00
  105   1   7.6293637208889074E+00   1.6969159945143151E+01   4.4371556568231245E+00
  106   2   7.2852926998480951E+00   2.6686560091793661E+00   1.0205953479313612E+01
  107   1   6.8288101519130411E+00   1.8556979972563796E+00   1.0247987083348239E+01
  108   1   8.0795162510545211E+00   2.5295887679328199E+00   9.5913448437865707E+00
  109   2   1.6058223185513661E+01   4.4887975314345550E+00   5.5016839845439902E+00
  110   1   1.6186932312078795E+01   3.5612112692904421E+00   5.5127390256091449E+00
  111   1   1.6701219003219592E+01   4.8196729896013686E+00   6.1552808092700841E+00
  112   2   9.4054443612232692E+00   2.8105247145683148E+00   1.2711769490326658E+01
  113   1   9.3810058993750598E+00   2.4284307235569624E+00   1.3626033716243914E+01
  114   1   1.0355785243337785E+01   3.0481845490833575E+00   1.2643772335728595E+01
  115   2   8.6256832231282647E+00   5.6590570529681195E+00   1.4711520107311937E+01
  116   1   8.9153045552887420E+00   6.5855590310117824E+00   1.4854212212437487E+01
  117   1   8.2264280152415612E+00   5.4193678238580416E+00   1.5605131605131406E+01
  118   2  -1.8213760926828853E+00   1.5089202347935073E+01  -6.4958407395317419E-01
  119   1  -2.1953699681619829E+00   1.4810990076392315E+01   2.2188664945788614E-01
  120   1  -1.2174441365168394E+00   1.5902260903527695E+01  -4.5505165276296211E-01
  121   2   1.2963595927893506E+01   8.7350519810729761E+00   8.2532139071871828E+00
  122   1   1.2367439701630834E+01   8.6987207906383741E+00   9.0053011939805110E+00
  123   1   1.3779657034967803E+01   8.2737343409828163E+00   8.4342602472158692E+00
  124   2   1.4552232475747040E+01   1.2674206904527610E+00   2.2645355460366656E+00
  125   1   1.4336607580198685E+01   2.2411072834796983E+00   2.1557880421348661E+00
  126   1   1.5072378746118817E+01   1.3137903725347699E+00   3.1588037527720250E+00
  127   2   2.4580609429988853E+00   8.0288993926961769E+00   1.9686207093341432E+00
  128   1   2.5236455787028764E+00   8.3724359447562886E+00   2.8691390280804425E+00
  129   1   3.2913584101121582E+00   7.4403278633645682E+00   1.8475714228636948E+00
  130   2   1.2921629529364374E+01   9.3301535571588818E+00   1.1568723965100483E+01
  131   1   1.2527662389323350E+01   9.8300709703769709E+00   1.2327944031488720E+01
  132   1   1.3634768844426505E+01   9.9287477028216369E+00   1.1272008483281329E+01
  133   2   7.1364393844826504E+00   1.0107031208644148E+01   6.6309412684225180E+00
  134   1   6.4975007684351640E+00   9.8467395232711041E+00   5.8789100744133025E+00
  135   1   8.0990968661276561E+00   9.9879229441748958E+00   6.2741535898815037E+00
  136   2   4.5294663874481653E+00   6.2170633067301839E+00   4.4727851582791045E+00
  137   1   5.2246258484932193E+00   6.0494723555849275E+00   5.1861795367557875E+00
  138   1   3.3391716876192662E-01   1.0114683111080707E+01   6.0365397937836089E+00
  139   2   2.1961277499247184E-01   9.5781291721786452E+00   9.0322072091524888E+00
  140   1   1.9486231026206209E+00   8.0081424166882922E+00   5.0174339209413343E+00
  141   1   1.0652146705604377E+00   9.9916610519765445E+00   9.3586709169310875E+00
  142   2   2.4711305616972332E+00   8.5472723902418881E+00   1.5430648650021160E+01
  143   1   3.4989101781659007E+00   8.6540984516992090E+00   1.5204922290737571E+01
  144   1   2.4312152540286891E+00   8.3682924872128410E+00   1.6397886160406721E+01
  145   2   1.6220741973114352E+00   1.0781662827412648E+00   9.5341640713325777E+00
  146   1   1.3909195382218840E+00   2.6993964424049610E-01   1.0066311551618512E+01
  147   1   2.4814786220116796E+00   1.0349997103029964E+00   9.0099489574037683E+00
  148   2   1.0588764505442638E+01   1.5518250761843953E+01   3.5170434935734760E+00
  149   1   1.0814105094541146E+01   1.4840929864501277E+01   4.1847899876806993E+00
  150   1   1.0272030778998824E+01   1.4901963047033979E+01   2.7910441139876077E+00
  151   2  -8.8359840667807565E-01   1.3888736332979406E+01   4.1290554565378486E+00
  152   1  -1.2283859336593506E+00   1.3605618588712794E+01   5.0437604870698802E+00
  153   1   1.4828550822060169E-01   1.3785387494959885E+01   4.3908161378420072E+00
  154   2   3.2308067788392952E-01   1.0203855291681458E+01   2.2788339142134149E+00
  155   1   8.6362831717940114E-01   1.0941580709033003E+01   1.9090575810869705E+00
  156   1  -5.3067742600040357E-01   1.0500711534638103E+01   2.5577743335952263E+00
  157   2   9.1229632171386221E+00   3.2280820453921413E+00   4.2823882569742109E+00
  158   1   8.1545244744895093E+00   3.4810245176919565E+00   4.1667826164487742E+00
  159   1   9.0928223416903862E+00   2.2654436141266472E+00   4.1942940103474058E+00
  160   2   1.2879346682864490E+01   1.4093109862718210E+01   1.0283857889611346E+01
  161   1   1.2328150410600081E+01   1.4741362526814513E+01   9.8198128701879899E+00
  162   1   1.2343238311172081E+01   1.3183991355977518E+01   1.0171898809230468E+01
  163   2   1.5979119659661210E+00   1.2295301206198159E+01   8.2679440839661633E-01
  164   1   2.2400097699490331E+00   1.1760473443350596E+01   3.2927152204750448E-01
  165   1   8.2249272686779318E-01   1.2429400002633027E+01   1.5605965059234972E-01
  166   2   4.8118035953320692E+00   4.0621097770533021E+00   1.0988169470479379E+01
  167   1   3.8714996173333374E+00   4.2056189317889539E+00   1.0683745993439553E+01
  168   1   4.9755553658288330E+00   3.0995290261035469E+00   1.0843497713416401E+01
  169   2   3.3307895206348209E-01   1.6051016321109547E+01   1.4923127489492495E+01
  170   1   2.3015239745643656E-01   1.5113913336045721E+01   1.5045034572218107E+01
  171   1   1.1706103660228762E+00   1.6031152067052595E+01   1.4357918604743986E+01
  172   2   1.5502400316914338E+01   7.3462851357357346E+00   7.0784098117860417E+00
  173   1   1.5890402571459866E+01   7.2140934939607106E+00   7.9745354305236358E+00
  174   1   1.5626019287909816E+01   8.3115683946898820E+00   6.8160162345403812E+00
  175   2   8.4419216748421810E-01   3.2721386938952985E+00   1.1083130849742368E+01
  176   1   1.2223871808225026E+00   2.4173037143914362E+00   1.0571596938440782E+01
  177   1   1.5460578912940366E+00   3.9540973002942676E+00   1.0877782575585293E+01
  178   2   4.4824786263864951E+00   2.1589594011460895E+00   3.4991678874664953E+00
  179   1   4.3107294007359496E+00   1.8382044570940186E+00   2.5941695544720700E+00
  180   1   1.8432607453223253E+00   1.5403448941498399E+00   4.0439616446838861E-01
  181   2   1.0199735117935189E+01   7.3938433498282903E+00   1.1118676741199385E+01
  182   1   9.6751352921757174E+00   7.9939514714848920E+00   1.1785863365819894E+01
  183   1   1.0126768460171032E+01   7.7763670327330372E+00   1.0190221040901520E+01
  184   2   1.1483894212673620E+01   5.5689752167457609E+00   1.0651421732828577E+00
  185   1   1.2385734945264245E+01   5.5944466325051874E+00   6.4920359554018081E-01
  186   1   1.1189923043858338E+01   4.6394283530437335E+00   1.3171046093923195E+00
  187   2   1.5668239691499084E+01   1.6707576538203881E+01   8.6856157170670496E+00
  188   1   1.6004071952578983E+01   1.5848305995337416E+01   8.5455890775412868E+00
  189   1   1.6503702022572796E+01   1.7281024182913299E+01   8.8572194189852258E+00
  190   2   7.5254730054077674E+00   6.1660993081229885E+00   1.0622703285717096E+01
  191   1   6.9458255205222255E+00   6.8524664898469201E+00   1.1042023305822815E+01
  192   1   8.4604307060678732E+00   6.4479443812028823E+00   1.0624701458856821E+01
  193   2   7.7266746469581404E+00   2.0495650839422012E+01   1.6793299012581677E+01
  194   1   7.6191855264584252E+00   2.0519279660141045E+01   1.7749067665324944E+01
  195   1   8.4496550705688662E+00   1.9833705185875619E+01   1.6688872769765418E+01
  196   2   5.8990188083406347E-01   4.9130500123017660E+00   4.9895536905282978E-01
  197   1  -4.1073041565549795E-01   4.9340064881172969E+00   4.9243643501991413E-01
  198   1   9.1046155849615584E-01   4.1263323106223213E+00   5.5226521022581104E-02
  199   2   1.1774730535705073E+01   1.3699660787164420E+01   5.2157266753759570E+00
  200   1   1.1697566444322192E+01   1.3177691501308969E+01   6.0466454909365108E+00
  201   1   1.1874897960346404E+01   1.2987850236073118E+01   4.4942475275060696E+00
  202   2   3.2066270846460960E+00   6.6913177420393302E+00   1.2611030554300022E+01
  203   1   4.0157194570601575E+00   7.1902408312824342E+00   1.2303442068375476E+01
  204   1   2.5214235636039062E+00   7.3046489437847777E+00   1.2715154107752952E+01
  205   2   8.2367580835309155E+00   7.5933606203236463E+00   4.2509604225546260E+00
  206   1   8.3320766574097167E+00   7.3442504493686140E+00   3.3199609674149531E+00
  207   1   7.5508565777505625E+00   8.3673135093769044E+00   4.2545821113703797E+00
  208   2   8.3150355637607209E-01   1.8803112992543166E+01   1.5747241086150273E+01
  209   1   9.2745238031033361E-01   1.7793735513504050E+01   1.5724200181310010E+01
  210   1   1.5840925031631667E+00   1.9069679661255957E+01   1.5162068462029593E+01
  211   2   8.6264298921696181E-01   8.3235272704273484E+00   1.2077424132449941E+01
  212   1   8.0050753055871660E-01   9.2515998464261795E+00   1.2232953547479259E+01
  213   1   5.4416033209867931E-01   7.9780073621893530E+00   1.1134495435496481E+01
  214   2   2.5386784448451820E+00   1.3497381740817307E+01   9.9072228906840554E+00
  215   1   3.4903676704872448E+00   1.3673168059392371E+01   1.0182055836572605E+01
  216   1   2.4947884871627384E+00   1.3886305292883032E+01   8.9955685667596832E+00
  217   2   7.0574967285016168E+00   1.0837432284251268E+01   1.3966704773719380E+01
  218   1   7.7103569385533204E+00   1.0256681994062975E+01   1.3491783575127380E+01
  219   1   7.3805393056265265E+00   1.1745894082076070E+01   1.3807709777150849E+01
  220   2  -1.9565194849275587E+00   1.8896597438216915E+01   1.4768558531096811E+01
  221   1  -1.8816626061742332E+00   1.9710102619373604E+01   1.4239771326085577E+01
  222   1  -1.1133491586331741E+00   1.9031450841351266E+01   1.5289722938417961E+01
  223   2   2.1200320673260280E+00   1.3963340794204223E+01   6.9846036263694584E+00
  224   1   2.6018293945667574E+00   1.4806364538411819E+01   7.1021973856676572E+00
  225   1   3.0574589088415260E+00   1.2392481954674073E+01   7.1487924972405352E+00
  226   2   1.4479817220634260E+01   7.8815129565530100E+00   1.0637763669074247E+00
  227   1   1.3544720346368289E+01   8.2178399983229653E+00   8.5695062998390126E-01
  228   1   1.4388516689300465E+01   6.8971597385320402E+00   9.6777991702438804E-01
  229   2  -3.3183750233207371E-01   1.2382459338342926E+01  -9.3762687050035465E-01
  230   1  -8.8026511944101615E-01   1.3174833415205244E+01  -9.7084279470784574E-01
  231   1  -9.7467615440704547E-01   1.1701115635860365E+01  -7.9141997035518874E-01
  232   2   7.9493365410266472E+00   1.4302952968085251E+01   5.1265772493951776E+00
  233   1   8.3186022181467791E+00   1.3430177293677749E+01   4.9268663000414685E+00
  234   1   7.0141740487868072E+00   1.4245709223543434E+01   5.4169584800272226E+00
  235   2   2.1603140948001416E+00   5.6695416410023887E+00   1.0439382012868577E+01
  236   1   1.2728135353857464E+00   6.1044686845217608E+00   1.0261085277615852E+01
  237   1   2.5609933185552252E+00   6.1622627733605375E+00   1.1158949243483741E+01
  238   2   9.0871246906852416E+00   1.5966954404812382E+01   6.9514580827307126E+00
  239   1   8.8572850369590963E+00   1.5169628287631852E+01   6.3861068493130864E+00
  240   1   8.8975538350029932E+00   1.6676101607012729E+01   6.3683233200404050E+00
  241   2  -3.5075945053364643E+00   1.3304560678719753E+01   1.4117831434373031E+01
  242   1  -4.2064423315255572E+00   1.2697800270373666E+01   1.4281789583981153E+01
  243   1  -2.8373746369561794E+00   1.2657961693400370E+01   1.3832589572791044E+01
  244   2   3.9479450860669214E+00   4.5039822714357332E+00   7.1192310708357329E+00
  245   1   4.0119289607148554E+00   3.5937567259746195E+00   7.4549056371074665E+00
  246   1   3.6561096764656047E+00   4.4498781352726224E+00   6.1755641716762586E+00
  247   2  -3.2084665046232383E+00  -1.0374921349555684E+00   1.5383573045542860E+01
  248   1  -3.2930872320527005E+00  -1.9462005293595861E+00   1.5086787712332168E+01
  249   1  -3.1891986332803945E+00  -1.0234731723449666E+00   1.6343084039505445E+01
  250   2   1.6570459314971075E+01   7.0859722832743435E+00   9.8942490530604648E+00
  251   1   1.5711859768805134E+01   6.6725298344246990E+00   1.0100040248541150E+01
  252   1   1.6745424879695577E+01   8.6052215280027884E+00   9.4291028158659849E+00
  253   2   4.8604656730817943E+00   1.2523841200699948E+01   1.3342039125342631E+00
  254   1   4.3427901310970363E+00   1.1800192955451953E+01   9.3581867197852064E-01
  255   1   4.2740669453687561E+00   1.3013803732269592E+01   1.9641481035669377E+00
  256   2  -1.4899201271182223E+00   1.4850592111153361E+01   1.2201663299133914E+01
  257   1  -1.4431435077627892E+00   1.3901808068386588E+01   1.2624418737677956E+01
  258   1  -2.1680263234384816E+00   1.4664932933397187E+01   1.1514388049319999E+01
  259   2  -1.7885634015083580E+00   4.1250442932965550E+00   1.2515768073205333E+01
  260   1  -1.6434804737542881E+00   5.1069156702091245E+00   1.2738673917967009E+01
  261   1  -8.7337999477973960E-01   3.7804578536545530E+00   1.2274358488990051E+01
  262   2   2.7194967094969544E+00  -2.5502425543850238E-01   1.3008525189613668E+01
  263   1   2.1747558700004257E+00  -6.3677428126425561E-01   1.2269900171007480E+01
  264   1   3.4933940349433081E+00  -8.4992527336234203E-01   1.3145455613291832E+01
  265   2  -2.3588328079028424E+00   1.0684277287357000E+01  -4.5264336728655985E-01
  266   1  -2.3255766662274966E+00   1.0852420170330841E+01   5.2057649144237994E-01
  267   1  -3.2459417761828635E+00   1.0977095908211922E+01  -8.0036200682634773E-01
  268   2   1.4420507039092806E+01   1.1599066986242410E+00   6.3714772162037443E+00
  269   1   1.4142250316664523E+01   4.2106895078018935E-01   5.7880762773775043E+00
  270   1   1.4671657717364255E+01   8.1171656219157806E-01   7.2300058526237327E+00
  271   2  -1.1312205313224857E+00   1.2078493070411339E+01   1.3143027219081501E+01
  272   1  -3.2960543286613986E-01   1.1821012903547661E+01   1.3667973126735406E+01
  273   1  -1.2049629628744700E+00   1.1501304672014228E+01   1.2365679658234983E+01
  274   2   2.1576512750863959E+00   5.1802453435383899E+00   1.5494394924102426E+01
  275   1   1.3450319365769223E+00   4.9919254627773064E+00   1.5992751264555105E+01
  276   1   2.0720489239349549E+00   6.1025890470767647E+00   1.5328190946420946E+01
  277   2   9.1598357558576371E+00   1.3526563217986325E+01   1.0413000412310337E+01
  278   1   9.0600620390595132E+00   1.3484652912241307E+01   1.1350572248380995E+01
  279   1   1.0065689239221181E+01   1.2966677326779264E+01   1.0321363853449069E+01
  280   2  -1.7074643484022220E-01   1.4253553217306719E+01   8.3891748782191655E+00
  281   1  -9.7165614007748535E-01   1.3943364354579042E+01   7.9860979525318516E+00
  282   1   5.0187219382671011E-01   1.4068979911182621E+01   7.7229174887769814E+00
  283   2   6.4446608366234326E+00   8.4327081704630036E+00   5.5524289037868202E-01
  284   1   6.5212581792158888E+00   9.0819768547998425E+00   1.2682811325939676E+00
  285   1   7.3219551552152895E+00   8.0451869380001071E+00   6.5659090937243203E-01
  286   2   3.5386799621020755E+00   1.0078461989505497E+01   4.6973737865641735E-01
  287   1   3.2251445827071255E+00   9.4047474348395266E+00   1.1000800401271786E+00
  288   1   4.2319121597533575E+00   9.5441575829172542E+00   3.1272785497460549E-02
  289   2   1.9453540045789662E+01   1.4592936786633629E+01   2.6018336279844267E+00
  290   1   1.9011616221217999E+01   1.4119683025425971E+01   3.3872712499962345E+00
  291   1   1.8909675523750597E+01   1.4461257917573750E+01   1.7822593134221396E+00
  292   2   9.5591846281102644E+00   8.0675695463928516E+00   1.5100295489759249E+01
  293   1   9.0650161960865567E+00   8.7385027456503472E+00   1.5566025409414831E+01
  294   1   9.3933812375757046E+00   8.4397716278435837E+00   1.4172426117808527E+01
  295   2   1.2537837937867788E+00   1.0904733570820003E+01   1.3805148559461157E+01
  296   1   1.6840974704014544E+00   1.0216692072408016E+01   1.4346921243994570E+01
  297   1   1.9983387721926960E+00   1.1563307836370321E+01   1.3497820957900457E+01
  298   2   1.1835500717165095E+01   1.9370768263527097E+01   1.6427546013772321E+01
  299   1   1.2711912368172984E+01   1.9059393514674920E+01   1.6064170078984063E+01
  300   1   1.1623864230238061E+01   2.0172475967994952E+01   1.5881881760046763E+01
  301   2   1.8259002403102098E+01   9.6662784532351438E+00   4.4581735171948553E+00
  302   1   1.8977626110754301E+01   1.0299171748851425E+01   4.5683614414585012E+00
  303   1   1.7703277432286367E+01   9.9306188734312961E+00   3.6009159644299573E+00
  304   2   8.6493755451123295E+00   6.9042687051525604E+00   1.2999259296690835E+00
  305   1   8.1095539369470764E+00   6.1149659728090366E+00   1.1359815386683856E+00
  306   1   9.5826478163630000E+00   6.5453246294864442E+00   1.0635657543783965E+00
  307   2   4.4623206789787622E+00   2.1558880566272940E+00   7.8674871146386955E+00
  308   1   4.4386664577537180E+00   1.7599142766112057E+00   8.9560432626938873E+00
  309   1   5.4208870916239729E+00   2.1456738781466269E+00   7.6308020245419197E+00
  310   2  -1.4410744248771086E+00   3.5158126273862398E+00   9.6339134459791058E+00
  311   1  -1.5622829936873501E+00   3.2202200596037631E+00   8.7139139974748918E+00
  312   1  -4.8548092978989194E-01   3.4362238460334877E+00   9.8310245477068925E+00
  313   2   1.3219271071298603E+01   1.4137159102740448E+01   1.6528215098407422E+00
  314   1   1.3921260622575238E+01   1.3535835990212869E+01   1.9799768522309995E+00
  315   1   1.2756889255841919E+01   1.3685300505254263E+01   8.5124927473829415E-01
  316   2   6.1322018036708021E+00   9.3492684962884347E+00   8.9257362256021491E+00
  317   1   6.7066300137477839E+00   8.6688270409465638E+00   9.3450546581762417E+00
  318   1   6.5408070436565069E+00   9.5234355326051379E+00   7.9755144083595724E+00
  319   2   8.3622905593127399E+00   1.2492286363750296E-01   1.1743141302236861E+01
  320   1   8.6011796724833935E+00   1.0916031504223911E+00   1.1828674860351182E+01
  321   1   7.3242348506299981E+00   2.3298243716810416E-01   1.2196981139192097E+01
  322   2   7.1516458207493825E+00   3.2311221684556286E+00   6.8516653155530785E+00
  323   1   7.8846478023368389E+00   2.7341586224160221E+00   7.3174957788782997E+00
  324   1   7.2206584664107742E+00   2.9229785756392461E+00   5.9138754584724706E+00
  325   2   9.7250282361126783E-01   1.5603995990841721E+01   1.0989476009007445E+01
  326   1   1.3240373600023712E+00   1.4764988172470293E+01   1.0591413037371749E+01
  327   1   1.5740428987943786E-01   1.5369566254008056E+01   1.1462525507812579E+01
  328   2   6.0415537478352270E+00   2.8220729487918974E+00   1.4090429580156581E+01
  329   1   6.7276992043087507E+00   2.8700629714866821E+00   1.4813314751869756E+01
  330   1   6.1240524746581473E+00   1.9412807688511018E+00   1.3666804174281577E+01
  331   2   4.5702606584602172E+00   3.9307261888758314E+00   1.7558628959020570E-01
  332   1   5.5039837886926266E+00   3.8207245349896168E+00   2.8607319897671918E-01
  333   1   4.4431771642799429E+00   4.8536821504445715E+00   5.0045135302158150E-01
  334   2   1.4887564664364801E+00   1.3513580913527399E+01   4.6512385299855810E+00
  335   1   1.8929039176168201E+00   1.3820612705028484E+01   5.8785126623296335E+00
  336   1   1.5374418279833837E+00   1.2567559704966801E+01   4.4437735469940511E+00
  337   2   8.8853298414840101E+00   5.9086725881573781E+00   8.2090106765972397E+00
  338   1   9.2442040657585896E+00   6.8023116031916961E+00   8.2705915575408575E+00
  339   1   9.4156823526783260E+00   5.4969335607422618E+00   7.5095087873783006E+00
  340   2   5.9417705058473489E+00   1.6790376896035710E+01   4.3652912751845117E+00
  341   1   6.0163305161866418E+00   1.6105143211892628E+01   3.6597144316106833E+00
  342   1   5.5319486874590407E+00   1.7663705560626212E+01   3.9948545289017168E+00
  343   2  -4.9633223762973028E-01   1.1919388534160626E+00  -1.1743818119886680E-01
  344   1  -6.2093865329648201E-01   1.2681398422792676E+00   8.4483353026105823E-01
  345   1  -1.4107504541146929E+00   1.4687731475075902E+00  -3.9109899957033639E-01
  346   2   1.2837478182118952E+01   1.0081456603329045E+01   5.6305338722466178E+00
  347   1   1.1919848389154911E+01   9.9156151120354643E+00   5.7338144464062255E+00
  348   1   1.3114731055382494E+01   9.9433879194751515E+00   6.5535559809664345E+00
  349   2   1.0998802757309269E+01   1.2074873498304422E+01   7.3531115217268548E+00
  350   1   1.0454732914513261E+01   1.1277129860306296E+01   6.9398029547109896E+00
  351   1   1.0867990680517099E+01   1.2105320767356444E+01   8.3672976340606464E+00
  352   2  -4.4636552638988869E+00  -1.4795524872470569E+00  -2.1788273594435017E+00
  353   1  -3.6158758041174748E+00  -1.0047328906791111E+00  -1.8429755188068822E+00
  354   1  -5.1971414426322253E+00  -9.3492118743271135E-01  -1.8186047916413739E+00
  355   2   1.1635421989651398E+01   1.6019294793339180E+00   1.0296544913187866E+00
  356   1   1.2384498787304922E+01   2.0322399808853424E+00   5.9499044887209540E-01
  357   1   1.0902527960214501E+01   2.3044101070601459E+00   1.0865188158020280E+00
  358   2   7.8972205236362987E+00   1.0232609722843125E+00   1.1996087478777138E+00
  359   1   8.2355367425334336E+00   9.1600998152847346E-01   2.1535919567191177E+00
  360   1   7.0380214196929964E+00   4.9836374893359936E-01   1.2594147684636401E+00
  361   2   6.0269373441561003E+00   1.7129052426257491E+01   1.2683372782958015E+01
  362   1   5.7145206453801594E+00   1.6184794965333204E+01   1.3094772607782408E+01
  363   1   5.4907739380339953E+00   1.7259486670522712E+01   1.1850847914569316E+01
  364   2   1.1481119736568857E+01   1.2191958189127934E+01   3.0195460077303773E+00
  365   1   1.1502451399025295E+01   1.2926306397534104E+01   2.4015167707268552E+00
  366   1   1.0454596915970647E+01   1.1972473475019946E+01   3.2320185946470210E+00
  367   2   4.0317619933164988E+00   1.1207060447759300E+01   4.3441326536752900E+00
  368   1   3.9996970295377432E+00   1.1272578407135006E+01   5.2952186172995326E+00
  369   1   4.7353845854589158E+00   1.0524435078077479E+01   4.2631346734159994E+00
  370   2   6.0444224174831236E+00   6.1036182967475181E+00   1.3784843500789432E+01
  371   1   7.0145047845421908E+00   5.8792222889663845E+00   1.4020284495268754E+01
  372   1   5.9886085097589810E+00   6.6977943418955572E+00   1.2951589426207264E+01
  373   2   2.5995237694688265E+00   4.1125440692746755E+00   3.9184646237750362E+00
  374   1   3.2869059130788805E+00   3.4041414194068480E+00   3.5729759369923482E+00
  375   1   3.0186977366649694E+00   5.0401430316717946E+00   4.0008210019288395E+00
  376   2   2.9030677539879366E+00  -1.4679322849231027E-01   6.8927575133335806E+00
  377   1   2.7246805294325371E+00   5.5838779052947485E-02   5.9311716155360195E+00
  378   1   3.4334763579663643E+00   6.1742809169453694E-01   7.2265931888053805E+00
  379   2   9.9018120537259779E+00   1.6559390515298496E+01  -4.3090847179715774E-01
  380   1   1.0601636741042171E+01   1.7142607829633352E+01   3.3674720847359417E-02
  381   1   9.0808237776622747E+00   1.6810642266416792E+01   1.7922702878546991E-02
  382   2   1.5284793123542514E+01   6.8575926294667635E+00   1.3708676908444785E+01
  383   1   1.5791467071360186E+01   7.5648009263747493E+00   1.3203045968905290E+01
  384   1   1.4493718176727340E+01   7.3128585989992150E+00   1.4067742694868883E+01
  385   2   6.3066149073895117E+00   3.9069682489178978E+00   3.5616250858675778E+00
  386   1   6.1860429387612328E+00   4.4614268986734142E+00   4.3420551039542712E+00
  387   1   5.5201168142516410E+00   3.2177958988111026E+00   3.4776012703294326E+00
  388   2   4.5485289380340665E+00   6.5447732268350691E+00   1.6612094977744825E+00
  389   1   4.6553862209466965E+00   6.0853447493796597E+00   2.5022758154874176E+00
  390   1   5.2311331406275441E+00   7.2207918190673457E+00   1.5316986677382962E+00
  391   2   1.1044206161808347E+01  -7.7826621248067093E-02   9.4191447591542854E+00
  392   1   1.1438952779877660E+01   8.2727966389691521E-01   9.4996775926472061E+00
  393   1   1.1058100767774926E+01  -3.2489681406389270E-01   8.4570921270587274E+00
  394   2   1.2128263774413112E+01   1.5703588199857290E+01   1.2859281341468265E+01
  395   1   1.1994501005505713E+01   1.5990133954081299E+01   1.1958097846970739E+01
  396   1   1.2648761418451409E+01   1.4865201106351567E+01   1.2709925307754638E+01
  397   2   5.3547420572560593E+00  -2.7967661071443510E+00   1.0499380124781231E+01
  398   1   5.5176127477004790E+00  -2.7056645464409934E+00   1.1426883306103592E+01
  399   1   5.6666851424302900E+00  -1.9549705832379456E+00   1.0109684503168138E+01
  400   2   9.4404108036368566E+00   1.3964973835070005E+01   8.0005455486814303E-01
  401   1   8.5542167827505278E+00   1.3711772595115177E+01   4.8123587022239056E-01
  402   1   9.7461154186987375E+00   1.4743409384257431E+01   2.8623301049372063E-01
  403   2  -1.5271001177954406E+00   1.1011551694619197E+01   1.0657044240670100E+01
  404   1  -1.8187381442979447E+00   1.1792437334282505E+01   1.0164151125719151E+01
  405   1  -8.3637304504973797E-01   1.0479706903696590E+01   1.0116758544092891E+01
  406   2   8.8765306828591761E+00   1.1974526153412160E+01   4.4116942954306628E+00
  407   1   8.2499732259616305E+00   1.1483680425081340E+01   3.7467630240732661E+00
  408   1   9.1948090775749343E+00   1.1276944119106071E+01   5.1304989816882154E+00
  409   2   5.4413302655471485E+00  -1.2679625679143818E+00   6.5276310603392274E+00
  410   1   5.4861335830916600E+00  -7.7411164221584250E-01   5.6328723063314827E+00
  411   1   4.4941300501657580E+00  -1.4064074967635980E+00   6.6173879817554964E+00
  412   2   1.1865818866978216E+01   6.6198920483066583E+00   7.0510428832653611E+00
  413   1   1.1036040428302226E+01   6.2193763403090356E+00   6.7380641982938725E+00
  414   1   1.1729022325133831E+01   7.5196255972525821E+00   7.3656699552416818E+00
  415   2  -2.2345290815994181E+00   1.2436695239630980E+01   7.2802776874420605E+00
  416   1  -1.9047516661404786E+00   1.1719024050954278E+01   6.6881754877745809E+00
  417   1  -3.2152674901083449E+00   1.2347771243141068E+01   7.1668691906867892E+00
  418   2   9.9785782038479827E+00   8.6249069201632267E+00   8.3273706844935127E+00
  419   1   9.7526565781744132E+00   9.1151890747668745E+00   7.4481199977614096E+00
  420   1   9.6285692853493128E+00   9.3590963754068142E+00   8.9706474952972162E+00
  421   2  -2.3235324546706209E+00   8.2207790485396064E+00   4.0503763308067047E+00
  422   1  -2.3121371526603274E+00   8.4000468239701398E+00   3.0662358420235978E+00
  423   1  -2.9322963279285212E+00   8.8393681550298417E+00   4.4765597793081477E+00
  424   2   6.7022664184855536E+00   1.3678342883315405E+01  -2.2936021917514141E-01
  425   1   6.4464081797662756E+00   1.3673710995208408E+01  -1.1571682065696636E+00
  426   1   6.1018773037311789E+00   1.3098643539063421E+01   2.1581063674858039E-01
  427   2   1.4573329712700062E+01   3.9301832530597931E+00   2.7073378047746308E+00
  428   1   1.3774573229524650E+01   4.2703907513005142E+00   3.1446514375048520E+00
  429   1   1.4528648105913533E+01   4.4145036972311944E+00   1.8679320451423262E+00
  430   2   1.6718046838453517E+01   8.6321651147565781E+00  -1.2442638958038132E+00
  431   1   1.5985851322931987E+01   9.2499138878395346E+00  -1.0637985923501867E+00
  432   1   1.7173403297288640E+01   9.0185634331827966E+00  -1.9414278801150964E+00
  433   2   7.7360072162092575E+00   1.3331804838128036E+01   1.3122778782371096E+01
  434   1   6.9162429270290779E+00   1.3913163682106235E+01   1.3110742646761169E+01
  435   1   8.3911217211696574E+00   1.3913806103237492E+01   1.3607858595836859E+01
  436   2   4.8448147279598279E+00   6.6322668573300962E+00   8.5027834039592918E+00
  437   1   4.7169200051187481E+00   5.9477147534317094E+00   7.8831883315954814E+00
  438   1   5.2100787670284205E+00   7.3330382426725000E+00   7.9463466897979780E+00
  439   2   1.3515890242865790E+01   5.9008074273057485E+00   9.6976385529720268E+00
  440   1   1.3054509101510597E+01   5.7910481365810798E+00   8.8503469945769560E+00
  441   1   1.4191174337132512E+01   5.1285939437372043E+00   9.6788892752936242E+00
  442   2   9.9857681345814218E+00   3.5321313941454777E+00   1.7068563237895245E+00
  443   1   9.1017141063267264E+00   3.7178889988624526E+00   1.2370051720332551E+00
  444   1   9.6434814990880540E+00   3.5756477527186399E+00   2.6671261578692627E+00
  445   3   7.5058288890695986E+00   4.1954767214086583E+00   1.2175741024392750E+01
  446   2   5.1498890929662489E+00   1.4845608849379841E+01   1.3317947803743269E+01
  447   1   5.4051800537178920E+00   1.4537099595112306E+01   1.4221061736697822E+01
  448   3   4.2223118268346820E+00   8.6987112654486207E+00   1.0439296815337991E+01
  449   2   2.1291217442383901E+00   1.9831254566222527E+00   1.2186485438436447E+00
  450   1   2.7410014129006095E+00   2.6988683235507640E+00   8.4847691534236558E-01
  451   3   1.2467834143294661E+01   6.7720553671119834E+00   1.1641666809890253E+01
  452   2   1.4195952807326297E+01   5.1874918962331495E+00   2.7865942628403728E-01
  453   1   1.4584231292374721E+01   5.4254189652385429E+00  -5.9660867277603702E-01
  454   3  -2.2770500578431774E+00   1.6840999046166139E+01   1.3682001085358555E+01
  455   2   3.6322527803696607E+00   1.1603357025872644E+01   7.2883021306334834E+00
  456   1   4.5372960934268178E+00   1.1910186671680037E+01   7.3116150325589722E+00
  457   3   1.4065502687744821E+01   5.8002843955802277E+00   6.1377909733481832E+00
  458   2   5.6076988173405073E+00   7.6469324042148923E+00   1.1878180975748647E+01
  459   1   5.9234419240497953E+00   8.4192840030348837E+00   1.2417805729992295E+01
  460   3   6.6703771415400572E+00   4.9719320894814523E+00   8.8800687616759699E+00
  461   2   1.1429273599554900E+01   1.1806321885882118E+01   1.0380357587019775E+01
  462   1   1.2028486882551737E+01   1.1217696909652441E+01   9.9059306399406193E+00
  463   3   1.2660815016909217E+01   1.6730783604687645E+01   2.5528667441625403E+00
  464   2   8.9819909379410667E+00   1.0413870908818506E+01   1.0443159279783664E+01
  465   1   9.8583173914183675E+00   1.0781273882164317E+01   1.0602959154886497E+01
  466   3   6.7361596895200710E+00   1.1872396010504078E+01   9.9451437294533331E+00
  467   2  -4.9593270883722673E-01   1.0188582708263649E+01   6.5588932622925160E+00
  468   1  -1.9344231614046734E-01   1.0206492710889190E+01   7.4896297163595076E+00
  469   3   2.0884031455671698E-01   7.8838222858914015E+00   1.2472399884250582E+00
  470   2   4.6632720197094626E+00   1.2085333215009884E+00   1.0173159309341388E+01
  471   1   3.8488481869186155E+00   1.0924429546524614E+00   1.0673813866411075E+01
  472   3   4.0795382284190040E+00   4.2215238819710557E+00   1.3737970571182030E+01
  473   2   9.7463540776198219E+00   1.0039523542964055E+01   5.9512877579442716E+00
  474   1   1.0009183696885380E+01   9.2720403744633106E+00   5.4657385642944680E+00
  475   3   8.5578051334021392E+00  -8.4974429475699609E-01   9.5383673259005999E+00
  476   2   1.0438279736743036E+01   3.9902094113645035E+00   6.5413129370679419E+00
  477   1   1.0075567390174379E+01   3.8836135419929283E+00   5.6150273925026015E+00
  478   3   5.9096235196012581E-01   3.6954794024320679E+00   3.0257675441720520E+00
  479   2   7.0796020480370485E+00   1.0872994051024545E+01   2.5755859092599644E+00
  480   1   6.3695753533159847E+00   1.1537397203527744E+01   2.4926368526325140E+00
